EA2
 1.0000000000000000
     7.0264773429744247    0.0000000000000000   -2.3167128115429136
    -3.6754720076298333    5.9885131186683109   -2.3167128115429136
     0.0000000000000000    0.0000000000000000    7.3985500000000002
 B   Mo  Si 
   4  12   2
Direct
  0.2114300000000000  0.7114300000000000  0.9228499999999999
  0.2885700000000000  0.2114300000000000  0.4999999999999998
  0.7885700000000000  0.2885700000000000  0.0771499999999999
  0.7114300000000000  0.7885700000000000  0.4999999999999999
  0.5194400000000000  0.0194400000000000  0.2523000000000000
  0.6676000000000000  0.8324000000000000  0.4999999999999999
  0.7671400000000000  0.2671400000000000  0.7476999999999998
  0.1676000000000000  0.6676000000000000  0.8352100000000000
  0.7328600000000000  0.4805600000000000  0.4999999999999999
  0.8324000000000000  0.3324000000000000  0.1647899999999999
  0.0194400000000000  0.7671400000000002  0.4999999999999999
  0.4805600000000000  0.9805600000000001  0.7476999999999999
  0.2328600000000000  0.7328600000000000  0.2523000000000000
  0.9805600000000000  0.2328600000000000  0.4999999999999999
  0.3324000000000000  0.1676000000000000  0.4999999999999998
  0.2671400000000000  0.5194400000000000  0.4999999999999999
 -0.0000000000000000  0.0000000000000000 -0.0000000000000001
  0.5000000000000000  0.5000000000000000 -0.0000000000000001
