EA243
 1.0000000000000000
     5.6014289533996564    0.0000000000000000   -3.2869959552174732
    -1.8368966167150396    5.2916743228854148   -3.2869959552174732
     0.0000000000000000    0.0000000000000000    6.4946400000000004
 B   Mo  Si 
   2   4   2
Direct
  0.5000000000000000  0.0000000000000000  0.5000000000000002
  0.0000000000000000  0.5000000000000000  0.5000000000000002
  0.2500000000000000  0.2500000000000000  0.0000000000000002
  0.7500000000000001  0.2500000000000000  0.5000000000000003
  0.7500000000000001  0.7500000000000000  0.0000000000000005
  0.2500000000000000  0.7500000000000000  0.5000000000000003
  0.0000000000000000  0.0000000000000000  0.0000000000000002
  0.5000000000000000  0.5000000000000000  0.0000000000000002
