EA255
 1.0000000000000000
     2.9982396200000001   -0.0000000000000000   -1.1304294600000000
    -0.4262073400000000    2.9677917200000001   -1.1304294600000000
    -0.0090318500000000   -0.0104217400000000    4.5173748900000001
 Mo  Si 
   1   2
Direct
  0.0000000000000000  0.0000000000000000  0.0000000000000000
  0.6645696300000000  0.6645696300000000  0.3291412600000000
  0.3354303700000000  0.3354303700000000  0.6708587400000000
