EA208
 1.0000000000000000
     6.0104041469522489    0.0000000000000000   -3.2469669993240178
    -2.1376211341442191    5.6174312542799107   -3.2469669993240178
     0.0000000000000000    0.0000000000000000    6.8313800000000002
 B   Mo  Si 
   4   4   4
Direct
  0.4137500000000000  0.0862500000000000  0.5000000000000001
  0.5862499999999999  0.9137499999999998  0.5000000000000001
  0.0862500000000000  0.5862500000000000  0.6725000000000002
  0.9137500000000000  0.4137500000000000  0.3275000000000001
 -0.0000000000000001  0.0000000000000000  0.0000000000000000
  0.2499999999999999  0.2500000000000000  0.0000000000000000
  0.7500000000000000  0.7500000000000000  0.0000000000000000
  0.4999999999999999  0.5000000000000000  0.0000000000000001
  0.6812200000000000  0.1812200000000000  0.8624500000000000
  0.3187799999999999  0.8187799999999998  0.1375500000000001
  0.1812199999999999  0.3187800000000000  0.5000000000000001
  0.8187799999999998  0.6812200000000000  0.5000000000000000
