EA178
 1.0000000000000000
     4.7585334704409128    0.0000000000000000   -3.0767842691345066
    -1.4094168537332226    4.5450175931143750   -3.0767842691345066
     0.0000000000000000    0.0000000000000000    5.6665900000000002
 B   Mo  Si 
   2   6   2
Direct
  0.2499999999999999  0.2500000000000000 -0.0000000000000000
  0.7500000000000000  0.7500000000000000  0.0000000000000000
 -0.0000000000000001  0.0000000000000000  0.5000000000000000
  0.4999999999999999  0.5000000000000000 -0.0000000000000001
 -0.0000000000000001  0.5000000000000000 -0.0000000000000000
  0.4999999999999999  0.5000000000000000  0.4999999999999999
  0.4999999999999999  0.0000000000000000  0.0000000000000000
 -0.0000000000000001  0.0000000000000000 -0.0000000000000000
  0.4999999999999999  0.0000000000000000  0.5000000000000000
 -0.0000000000000001  0.5000000000000000  0.4999999999999999
