%nprocshared=10
%mem=4GB
%chk=Mo4O5.chk
%rwf=tmp.rwf
%nosave
#B3LYP/LANL2DZ nosymm opt freq IOp(5/13=1)  scf=YQC 

Mo4O5

0 1
Mo 7.970533   6.969983   7.239807
Mo 6.998667   5.111503   5.834706
Mo 5.295030   6.724763   6.825341
Mo 7.175333   7.450105   5.200542
O 8.221319   8.680685   6.390895
O 8.494484   5.058213   7.029311
O 5.269747   4.767092   6.594977
O 7.286262   5.869036   4.040956
O 4.031087   7.686266   6.136755

