EA20
 1.0000000000000000
     4.8770130147276536    0.0000000000000000   -2.7843944096656061
    -1.6438129288637682    4.5916375075481772   -2.7843944096656061
     0.0000000000000000    0.0000000000000000    5.6158799999999998
 B   Mo  Si 
   4   6   2
Direct
  0.0000000000000000  0.5000000000000000  0.0000000000000000
  0.5000000000000000  0.5000000000000000  0.5000000000000000
  0.5000000000000000 -0.0000000000000000 -0.0000000000000000
 -0.0000000000000000 -0.0000000000000000  0.5000000000000000
  0.2678400000000000  0.2321599999999999  0.4999999999999999
  0.2500000000000000  0.2499999999999999 -0.0000000000000000
  0.7321600000000000  0.7678399999999999  0.4999999999999998
  0.7500000000000000  0.7499999999999999 -0.0000000000000002
  0.2321600000000000  0.7321600000000000  0.9643199999999998
  0.7678400000000000  0.2678400000000000  0.0356800000000001
  0.2499999999999999  0.7499999999999999  0.5000000000000000
  0.7499999999999999  0.2499999999999999  0.4999999999999999
