EA204
 1.0000000000000000
     5.6845171732802591    0.0000000000000000   -2.9474549827065752
    -2.1008451256471701    5.2820625944192212   -2.9474549827065752
     0.0000000000000000    0.0000000000000000    6.4032200000000001
 B   Mo  Si 
   2   6   2
Direct
  0.2499999999999999  0.7500000000000000  0.4999999999999998
  0.7500000000000000  0.2500000000000000  0.4999999999999998
  0.2499999999999999  0.2500000000000000 -0.0000000000000002
  0.4999999999999999  0.0000000000000000 -0.0000000000000002
  0.7500000000000000  0.7500000000000000 -0.0000000000000001
 -0.0000000000000000  0.0000000000000000  0.4999999999999998
 -0.0000000000000000  0.5000000000000000 -0.0000000000000002
  0.4999999999999999  0.5000000000000000  0.4999999999999998
 -0.0000000000000000  0.0000000000000000 -0.0000000000000002
  0.4999999999999999  0.5000000000000000 -0.0000000000000002
