EA45
 1.0000000000000000
     6.2547397200409716    0.0000000000000000   -1.9051059466973970
    -3.4321659936889275    5.2289583625444473   -1.9051059466973970
     0.0000000000000000    0.0000000000000000    6.5384399999999996
 B   Mo  Si 
   4   4   8
Direct
  0.5000000000000000  0.0000000000000000 -0.0000000000000001
  0.0000000000000000  0.0000000000000000  0.4999999999999998
  0.0000000000000000  0.5000000000000000 -0.0000000000000001
  0.5000000000000000  0.5000000000000000  0.4999999999999998
  0.7499999999999999  0.2500000000000000  0.4999999999999998
  0.2500000000000000  0.2500000000000000 -0.0000000000000001
  0.2500000000000000  0.7500000000000000  0.4999999999999998
  0.7499999999999999  0.7500000000000000 -0.0000000000000002
  0.2500000000000000  0.9996699999999999  0.7496699999999997
  0.7499999999999999  0.0003300000000000  0.2503299999999998
  0.9996699999999999  0.2500000000000000  0.7496699999999997
  0.0003300000000000  0.7500000000000000  0.2503299999999999
  0.2500000000000000  0.5003300000000001  0.2503299999999998
  0.7499999999999999  0.4996700000000000  0.7496699999999997
  0.5003300000000001  0.2500000000000000  0.2503299999999998
  0.4996700000000001  0.7500000000000000  0.7496699999999998
