EA198
 1.0000000000000000
     5.4246098163413814    0.0000000000000000   -3.1468135873217422
    -1.7997020558229102    5.1173688717752279   -3.1468135873217422
     0.0000000000000000    0.0000000000000000    6.2712700000000003
 B   Mo  Si 
   2   8   2
Direct
  0.5000000000000000  0.0000000000000000  0.5000000000000000
  0.0000000000000000  0.5000000000000000  0.4999999999999999
  0.5000000000000000  0.5000000000000000  0.5000000000000000
  0.2484200000000000  0.7484200000000000  0.9968499999999999
  0.7515800000000001  0.2515800000000000  0.0031500000000001
  0.5000000000000000  0.0000000000000000  0.0000000000000000
  0.7484200000000000  0.7515800000000000  0.4999999999999999
  0.2515800000000000  0.2484200000000000  0.5000000000000000
  0.0000000000000000  0.0000000000000000  0.4999999999999999
  0.0000000000000000  0.5000000000000000  0.0000000000000000
  0.2500000000000000  0.2500000000000000  0.0000000000000000
  0.7500000000000001  0.7500000000000000  0.0000000000000000
