EA220
 1.0000000000000000
     5.6437057048961927    0.0000000000000000   -3.2120670881882551
    -1.9082026584203584    5.3113253240481617   -3.2120670881882551
     0.0000000000000000    0.0000000000000000    6.4937500000000004
 B   Mo  Si 
   4   6   2
Direct
  0.2511300000000000  0.2488700000000000  0.5000000000000000
  0.7488699999999999  0.7511300000000000  0.5000000000000000
  0.2488700000000000  0.7488700000000001  0.9977500000000000
  0.7511300000000000  0.2511300000000001  0.0022499999999999
  0.0000000000000000  0.5000000000000000  0.0000000000000000
  0.0000000000000000  0.0000000000000000 -0.0000000000000000
  0.5000000000000000  0.5000000000000000  0.5000000000000000
  0.5000000000000000  0.0000000000000000  0.0000000000000000
  0.0000000000000000  0.0000000000000000  0.5000000000000000
  0.5000000000000000  0.5000000000000000  0.0000000000000000
  0.2500000000000000  0.2500000000000000  0.0000000000000000
  0.7500000000000000  0.7500000000000000  0.0000000000000000
