EA88
 1.0000000000000000
     5.6693546898956733    0.0000000000000000   -3.2282371848669880
    -1.9159194841504414    5.3358068865069299   -3.2282371848669880
     0.0000000000000000    0.0000000000000000    6.5240400000000003
 B   Mo  Si 
   4   6   2
Direct
  0.5000000000000000  0.0000000000000000  0.0000000000000000
 -0.0000000000000000  0.0000000000000000  0.5000000000000000
  0.0000000000000000  0.5000000000000000 -0.0000000000000000
  0.5000000000000000  0.5000000000000000  0.5000000000000000
  0.2500000000000000  0.2500000000000000  0.0000000000000000
  0.7500100000000000  0.2500100000000000  0.0000200000000000
  0.7500000000000000  0.7500000000000000  0.0000000000000000
  0.2499899999999999  0.7499900000000000  0.9999800000000000
  0.2500100000000000  0.2499900000000000  0.5000000000000000
  0.7499899999999998  0.7500099999999998  0.4999999999999998
 -0.0000000000000000  0.0000000000000000  0.0000000000000000
  0.5000000000000000  0.5000000000000000  0.0000000000000000
