EA183
 1.0000000000000000
     5.5324002326736075    0.0000000000000000   -3.2195460371942217
    -1.8295307356110451    5.2211368131798164   -3.2195460371942217
     0.0000000000000000    0.0000000000000000    6.4010100000000003
 B   Mo  Si 
   2   6   2
Direct
  0.2499999999999999  0.2499999999999999 -0.0000000000000001
  0.7499999999999999  0.7500000000000000 -0.0000000000000001
  0.4999999999999999 -0.0000000000000001  0.4999999999999999
 -0.0000000000000001 -0.0000000000000001  0.4999999999999999
 -0.0000000000000001  0.4999999999999999  0.4999999999999999
 -0.0000000000000001  0.4999999999999999 -0.0000000000000001
  0.4999999999999999  0.4999999999999999  0.4999999999999999
  0.4999999999999999 -0.0000000000000001 -0.0000000000000001
  0.7499999999999999  0.2499999999999999  0.4999999999999998
  0.2499999999999999  0.7500000000000000  0.4999999999999999
