EA167
 1.0000000000000000
     5.7175063908126260    0.0000000000000000   -3.1791870774644218
    -1.9779062865054686    5.3644912201238029   -3.1791870774644218
     0.0000000000000000    0.0000000000000000    6.5419499999999999
 B   Mo  Si 
   2   6   4
Direct
  0.2499999999999999  0.2500000000000000 -0.0000000000000001
  0.7499999999999999  0.7500000000000000 -0.0000000000000001
  0.4999999999999999  0.5000000000000000 -0.0000000000000002
 -0.0000000000000000  0.5000000000000000 -0.0000000000000001
  0.4999999999999999  0.5000000000000000  0.4999999999999998
  0.4999999999999999  0.0000000000000000 -0.0000000000000001
 -0.0000000000000000  0.0000000000000000  0.4999999999999999
 -0.0000000000000000  0.0000000000000000 -0.0000000000000001
  0.2334700000000000  0.2665300000000000  0.4999999999999999
  0.7665300000000000  0.7334700000000000  0.4999999999999998
  0.2665299999999999  0.7665300000000000  0.0330599999999998
  0.7334700000000000  0.2334700000000000  0.9669399999999998
