EA11
 1.0000000000000000
     5.7214483598927117    0.0000000000000000   -6.6152791118425984
    -0.7935365372805304    5.6661513480421455   -6.6152791118425984
     0.0000000000000000    0.0000000000000000    8.7462499999999999
 B   Mo  Si 
   4   8   8
Direct
  0.7347799999999999  0.2347800000000000  0.9695599999999999
  0.2652200000000000  0.7652200000000000  0.0304400000000000
  0.2347799999999998  0.2652200000000000  0.4999999999999999
  0.7652200000000000  0.7347800000000001  0.5000000000000001
  0.5964200000000001  0.5964200000000000  0.0000000000000001
  0.9035799999999999  0.9035800000000002  0.0000000000000000
  0.0964200000000000  0.0964200000000000  0.0000000000000000
 -0.0000000000000000  0.5000000000000000  0.0000000000000000
  0.4999999999999999  0.5000000000000000  0.4999999999999999
  0.5000000000000000  0.0000000000000000  0.0000000000000000
 -0.0000000000000000 -0.0000000000000000  0.5000000000000000
  0.4035799999999999  0.4035800000000000  0.0000000000000000
  0.2289899999999999  0.0130100000000000  0.4999999999999999
  0.4869900000000000  0.2710100000000000  0.5000000000000000
  0.5130100000000000  0.7289900000000000  0.5000000000000000
  0.9869900000000001  0.4869900000000000  0.2159699999999999
  0.0130100000000000  0.5130100000000000  0.7840300000000000
  0.7289900000000001  0.2289900000000000  0.2159699999999999
  0.7710100000000000  0.9869900000000000  0.5000000000000000
  0.2710099999999998  0.7710100000000001  0.7840300000000000
