EA30
 1.0000000000000000
     6.9428812035888123    0.0000000000000000   -2.0326084430733746
    -3.8971244981828437    5.7459568439738522   -2.0326084430733746
     0.0000000000000000    0.0000000000000000    7.2343000000000002
 B   Mo  Si 
   4  10   2
Direct
  0.1786300000000000  0.6786300000000001  0.8572500000000001
  0.8213699999999999  0.3213700000000000  0.1427500000000000
  0.6786300000000000  0.8213700000000002  0.5000000000000000
  0.3213699999999999  0.1786300000000000  0.5000000000000001
  0.2499999999999999  0.2500000000000000  0.0000000000000000
  0.2156099999999999  0.9552700000000000  0.1708800000000001
  0.7500000000000000  0.7500000000000001  0.0000000000000001
  0.7843899999999999  0.0447300000000000  0.8291200000000000
  0.9552699999999998  0.7843900000000000  0.7396599999999999
  0.0447300000000000  0.2156100000000000  0.2603400000000001
  0.2843899999999999  0.4552700000000000  0.7396600000000001
  0.7156099999999999  0.5447300000000000  0.2603400000000001
  0.5447299999999999  0.2843900000000000  0.8291200000000000
  0.4552700000000000  0.7156100000000001  0.1708800000000001
 -0.0000000000000001  0.5000000000000000  0.5000000000000001
  0.4999999999999999  0.0000000000000000  0.5000000000000001
