EA257
 1.0000000000000000
     4.6073876399999998    0.0000000000000000    1.6594369499999999
     2.3036938199999999    6.8207868300000003    0.8297189800000000
    -0.0075972300000000    0.0000000000000000    7.2469664099999997
 Mo  Si 
  10   6
Direct
  0.2761190100000001  0.1469417199999999  0.3008192599999999
  0.7238809900000001  0.8530582799999999  0.6991807400000000
  0.4230597300000000  0.3008192599999998  0.8530582799999999
  0.5769402700000000  0.6991807399999999  0.1469417200000000
  0.9230597300000000  0.8530582799999999  0.3008192600000000
  0.2238809900000001  0.6991807399999999  0.8530582800000001
  0.7761190100000002  0.3008192599999998  0.1469417200000000
  0.0769402700000001  0.1469417199999999  0.6991807400000000
  0.7500000000000000  0.4999999999999998  0.5000000000000000
  0.2500000000000001  0.4999999999999998  0.5000000000000000
  0.8327836300000000  0.4999999999999998  0.8344337500000001
  0.6672163700000001  0.1655662499999999  0.5000000000000000
  0.3327836300000000  0.8344337500000000  0.5000000000000000
  0.1672163700000001  0.4999999999999998  0.1655662500000000
  0.7500000000000001 -0.0000000000000001  0.0000000000000000
  0.2500000000000001 -0.0000000000000001 -0.0000000000000000
