EA54
 1.0000000000000000
     5.7253037416722323    0.0000000000000000   -2.2046199390357395
    -2.6982756899605351    5.0495951555915903   -2.2046199390357395
     0.0000000000000000    0.0000000000000000    6.1351000000000004
 B   Mo  Si 
   8   4   2
Direct
  0.4956099999999999  0.2896800000000000  0.7852800000000000
  0.5043900000000000  0.7103200000000000  0.2147200000000000
  0.2896800000000000  0.5043900000000000  0.7940700000000002
  0.7103200000000000  0.4956099999999999  0.2059300000000000
  0.0043900000000000  0.7896800000000000  0.7940699999999999
  0.9956100000000000  0.2103200000000000  0.2059300000000001
  0.2103200000000000  0.0043900000000000  0.2147200000000000
  0.7896800000000002  0.9956100000000000  0.7852800000000000
  0.2500000000000000  0.2500000000000000  0.0000000000000000
  0.7500000000000001  0.2500000000000000  0.5000000000000001
  0.7500000000000001  0.7500000000000000  0.0000000000000000
  0.2500000000000000  0.7500000000000000  0.5000000000000001
  0.5000000000000000  0.0000000000000000  0.5000000000000001
  0.0000000000000000  0.5000000000000000  0.5000000000000001
