EA138
 1.0000000000000000
     5.1519715810605042    0.0000000000000000   -2.6171371358690636
    -1.9400614201079085    4.7727322215125323   -2.6171371358690636
     0.0000000000000000    0.0000000000000000    5.7786000000000000
 B   Mo  Si 
   4   6   4
Direct
  0.5000000000000000  0.5000000000000000  0.5000000000000001
  0.5000000000000000  0.0000000000000000  0.0000000000000001
  0.0000000000000000  0.0000000000000000  0.5000000000000000
  0.0000000000000000  0.5000000000000000  0.0000000000000000
  0.2139000000000001  0.7139000000000001  0.9278100000000000
  0.2500000000000000  0.2500000000000000  0.0000000000000000
  0.7861000000000001  0.2861000000000000  0.0721900000000002
  0.7500000000000000  0.7500000000000000  0.0000000000000000
  0.7139000000000000  0.7861000000000000  0.5000000000000001
  0.2861000000000000  0.2139000000000000  0.5000000000000001
  0.1880700000000000  0.3119300000000000  0.5000000000000001
  0.8119300000000003  0.6880700000000001  0.5000000000000001
  0.3119300000000000  0.8119300000000000  0.1238500000000000
  0.6880700000000000  0.1880700000000000  0.8761500000000001
