EA12
 1.0000000000000000
     4.8226003523192560    0.0000000000000000   -2.9196353098820724
    -1.5318262830385687    4.5728527635144838   -2.9196353098820724
     0.0000000000000000    0.0000000000000000    5.6375299999999999
 B   Mo  Si 
   4   4   4
Direct
  0.7503000000000000  0.2503000000000000  0.0006100000000000
  0.2497000000000000  0.7496999999999999  0.9993900000000000
  0.2503000000000000  0.2497000000000000  0.5000000000000000
  0.7497000000000000  0.7503000000000000  0.5000000000000002
  0.5000000000000000  0.5000000000000000  0.0000000000000000
  0.0000000000000000  0.5000000000000000  0.5000000000000000
  0.5000000000000000 -0.0000000000000000  0.5000000000000000
 -0.0000000000000000 -0.0000000000000000  0.0000000000000000
 -0.0000000000000000 -0.0000000000000000  0.5000000000000000
  0.0000000000000000  0.5000000000000000  0.0000000000000000
  0.5000000000000000  0.5000000000000000  0.5000000000000000
  0.5000000000000000 -0.0000000000000000  0.0000000000000000
