EA264
 1.0000000000000000
     4.8896951900000003   -0.0000000000000000    0.0000000000000000
     0.0000000000000000    4.8896951900000003    0.0000000000000000
    -0.0000000000000000    0.0000000000000000    4.8896951900000003
 Mo  Si 
   6   2
Direct
 -0.0000000000000001  0.4999999999999999  0.2499999999999999
 -0.0000000000000001  0.4999999999999999  0.7499999999999998
  0.4999999999999999  0.7499999999999998 -0.0000000000000001
  0.4999999999999999  0.2499999999999999 -0.0000000000000001
  0.7499999999999998 -0.0000000000000001  0.4999999999999999
  0.2499999999999999 -0.0000000000000001  0.4999999999999999
  0.4999999999999999  0.4999999999999999  0.4999999999999999
 -0.0000000000000001 -0.0000000000000001 -0.0000000000000001
