EA77
 1.0000000000000000
     5.5549114260108166    0.0000000000000000   -3.0039053012993739
    -1.9738528982374903    5.1923930597504828   -3.0039053012993739
     0.0000000000000000    0.0000000000000000    6.3151000000000002
 B   Mo  Si 
   4   4   2
Direct
  0.2485600000000000  0.7485600000000000  0.9971200000000000
  0.7514400000000001  0.2514400000000000  0.0028800000000000
  0.7485599999999999  0.7514400000000000  0.5000000000000000
  0.2514400000000000  0.2485600000000000  0.5000000000000000
  0.0000000000000000  0.5000000000000000  0.5000000000000001
  0.5000000000000000  0.5000000000000000  0.0000000000000000
  0.5000000000000000  0.0000000000000000  0.5000000000000000
  0.0000000000000000  0.0000000000000000  0.0000000000000000
  0.2500000000000000  0.2500000000000000  0.0000000000000000
  0.7499999999999999  0.7500000000000000  0.0000000000000000
