EA44
 1.0000000000000000
     6.0333620049256336    0.0000000000000000   -4.6927866613686726
    -1.4431843558871573    5.8582144035023873   -4.6927866613686726
     0.0000000000000000    0.0000000000000000    7.6435399999999998
 B   Mo  Si 
   8   8   2
Direct
  0.7538100000000002  0.2538100000000000  0.2161900000000000
  0.7461900000000001  0.9623900000000000  0.5000000000000000
  0.5376100000000000  0.7538100000000000  0.5000000000000000
  0.2461900000000000  0.7461899999999999  0.7838100000000000
  0.4623900000000001  0.2461900000000000  0.5000000000000000
  0.0376100000000000  0.5376099999999999  0.7838100000000000
  0.9623900000000001  0.4623900000000000  0.2161900000000000
  0.2538100000000001  0.0376100000000000  0.5000000000000000
  0.6299900000000000  0.6299900000000000  0.0000000000000000
  0.2510800000000001  0.7510800000000000  0.0021600000000001
  0.2489200000000001  0.2510800000000000  0.5000000000000000
  0.1299900000000000  0.1299900000000000  0.0000000000000000
  0.8700100000000001  0.8700100000000000  0.0000000000000000
  0.7510800000000000  0.7489199999999999  0.4999999999999998
  0.7489200000000001  0.2489200000000000  0.9978399999999998
  0.3700100000000001  0.3700100000000000  0.0000000000000001
  0.5000000000000000 -0.0000000000000000  0.5000000000000000
  0.0000000000000001  0.5000000000000000  0.5000000000000000
