EA68
 1.0000000000000000
     6.5852869619115300    0.0000000000000000   -1.8812127119701301
    -3.7470902557369459    5.4152856790831656   -1.8812127119701301
     0.0000000000000000    0.0000000000000000    6.8487200000000001
 B   Mo  Si 
   4  12   2
Direct
  0.7371400000000001  0.7628600000000000  0.5000000000000001
  0.2371400000000000  0.7371400000000000  0.9742800000000000
  0.7628600000000000  0.2628600000000000  0.0257200000000000
  0.2628600000000000  0.2371400000000000  0.5000000000000000
  0.4971600000000000  0.2500000000000000  0.2471600000000000
  0.0028400000000000  0.2500000000000000  0.7528400000000001
  0.7500000000000001  0.5028400000000000  0.7528400000000000
  0.5000000000000000  0.0000000000000000  0.0000000000000000
  0.2500000000000000  0.0028400000000000  0.7528400000000001
  0.9971600000000002  0.7500000000000000  0.2471600000000000
  0.2500000000000000  0.4971600000000000  0.2471600000000000
  0.0000000000000000  0.0000000000000000  0.5000000000000000
  0.5000000000000000  0.5000000000000000  0.5000000000000000
  0.7500000000000001  0.9971599999999999  0.2471600000000000
  0.0000000000000000  0.5000000000000000  0.0000000000000000
  0.5028400000000000  0.7500000000000000  0.7528400000000000
  0.5000000000000000  0.5000000000000000  0.0000000000000000
  0.0000000000000000  0.0000000000000000  0.0000000000000000
