EA18
 1.0000000000000000
     5.7435457715289537    0.0000000000000000   -3.6314801602723739
    -1.7427682497939283    5.4727577013018154   -3.6314801602723739
     0.0000000000000000    0.0000000000000000    6.7952899999999996
 B   Mo  Si 
   4   6   8
Direct
  0.5000000000000000  0.5000000000000000  0.4999999999999999
  0.5000000000000000 -0.0000000000000000 -0.0000000000000000
  0.0000000000000000  0.5000000000000000  0.0000000000000000
  0.0000000000000000 -0.0000000000000000  0.5000000000000000
  0.8154700000000000  0.3154700000000000  0.1309400000000000
  0.2500000000000000  0.2500000000000000 -0.0000000000000000
  0.6845300000000000  0.8154699999999999  0.5000000000000000
  0.3154700000000000  0.1845300000000000  0.5000000000000000
  0.1845300000000000  0.6845300000000000  0.8690600000000001
  0.7500000000000000  0.7499999999999999  0.0000000000000000
  0.5334400000000000  0.0334400000000000  0.2046500000000000
  0.0334400000000000  0.8287900000000000  0.5000000000000001
  0.3287900000000000  0.5334400000000000  0.5000000000000000
  0.6712100000000000  0.4665599999999999  0.5000000000000000
  0.9665600000000000  0.1712100000000000  0.5000000000000000
  0.8287900000000000  0.3287900000000000  0.7953499999999999
  0.1712100000000000  0.6712100000000000  0.2046500000000000
  0.4665600000000000  0.9665600000000000  0.7953500000000000
