EA188
 1.0000000000000000
     5.6005310037581495    0.0000000000000000   -3.6521939400234129
    -1.6435986183974247    5.3539266996904562   -3.6521939400234129
     0.0000000000000000    0.0000000000000000    6.6861400000000000
 B   Mo  Si 
   8   6   4
Direct
  0.9272200000000000  0.9848500000000000  0.5000000000000000
  0.0727800000000000  0.0151500000000000  0.5000000000000000
  0.5151500000000000  0.5727799999999998  0.5000000000000000
  0.9848500000000000  0.4848499999999999  0.0576200000000000
  0.0151500000000000  0.5151500000000000  0.9423800000000000
  0.4272200000000000  0.9272200000000000  0.9423799999999999
  0.4848500000000000  0.4272200000000000  0.5000000000000000
  0.5727800000000000  0.0727800000000000  0.0576200000000000
  0.2500000000000000  0.2500000000000000 -0.0000000000000000
  0.8168100000000001  0.3168100000000000  0.1336100000000000
  0.3168100000000000  0.1831899999999999  0.5000000000000000
  0.6831900000000001  0.8168100000000000  0.5000000000000000
  0.1831900000000000  0.6831900000000000  0.8663900000000000
  0.7500000000000000  0.7500000000000000  0.0000000000000000
 -0.0000000000000000 -0.0000000000000000  0.5000000000000000
  0.5000000000000000  0.4999999999999999  0.4999999999999999
  0.5000000000000000 -0.0000000000000000 -0.0000000000000000
 -0.0000000000000000  0.4999999999999999 -0.0000000000000000
