EA76
 1.0000000000000000
     4.9558978655942205    0.0000000000000000   -2.7831677836951632
    -1.6979082380847967    4.6559672753623529   -2.7831677836951632
     0.0000000000000000    0.0000000000000000    5.6839199999999996
 B   Mo  Si 
   2   4   4
Direct
  0.5000000000000000  0.5000000000000000  0.0000000000000002
  0.0000000000000000 -0.0000000000000001  0.0000000000000001
  0.2500000000000000  0.2499999999999999  0.0000000000000000
  0.7500000000000000  0.2499999999999999  0.5000000000000001
  0.7500000000000000  0.7499999999999999  0.0000000000000000
  0.2500000000000000  0.7499999999999999  0.5000000000000001
  0.2465500000000000  0.7465500000000000  0.9931100000000003
  0.7534500000000000  0.2534499999999999  0.0068900000000001
  0.7465499999999999  0.7534499999999998  0.5000000000000001
  0.2534500000000001  0.2465499999999999  0.5000000000000001
