EA216
 1.0000000000000000
     4.8746599728687494    0.0000000000000000   -2.8845886689285956
    -1.5850089470186788    4.6097783557302945   -2.8845886689285956
     0.0000000000000000    0.0000000000000000    5.6642000000000001
 B   Mo  Si 
   2   6   4
Direct
  0.4999999999999999  0.5000000000000000  0.0000000000000000
 -0.0000000000000001  0.0000000000000000 -0.0000000000000000
  0.2480100000000000  0.7480100000000000  0.9960099999999998
  0.2499999999999999  0.2500000000000000  0.0000000000000000
  0.7519900000000000  0.2519900000000000  0.0039900000000000
  0.7500000000000000  0.7500000000000000  0.0000000000000000
  0.7480099999999998  0.7519900000000000  0.4999999999999999
  0.2519899999999999  0.2480100000000000  0.4999999999999999
  0.2650199999999999  0.2349800000000000  0.4999999999999999
  0.7349800000000000  0.7650200000000000  0.4999999999999999
  0.2349799999999999  0.7349800000000000  0.9699599999999999
  0.7650199999999999  0.2650200000000000  0.0300400000000000
