EA37
 1.0000000000000000
     6.6922996646033770    0.0000000000000000   -3.9422230975998205
    -2.1861985306304557    6.3251411672404361   -3.9422230975998205
     0.0000000000000000    0.0000000000000000    7.7671099999999997
 B   Mo  Si 
   4  10   8
Direct
  0.2529699999999999  0.7529699999999999  0.0059400000000000
  0.2470300000000000  0.2529700000000000  0.5000000000000000
  0.7529700000000000  0.7470300000000000  0.4999999999999999
  0.7470300000000000  0.2470300000000000  0.9940600000000001
  0.2809900000000000  0.5073400000000000  0.5000000000000000
  0.0073400000000000  0.7809900000000000  0.5000000000000000
  0.7190099999999999  0.4926600000000000  0.4999999999999999
  0.9926599999999999  0.2190100000000000  0.4999999999999999
  0.7809900000000000  0.2809900000000000  0.7736499999999998
  0.7500000000000000  0.7500000000000000  0.0000000000000000
  0.2190100000000000  0.7190100000000000  0.2263500000000000
  0.2500000000000000  0.2500000000000000 -0.0000000000000000
  0.5073400000000000  0.0073400000000000  0.2263500000000000
  0.4926600000000000  0.9926600000000001  0.7736500000000001
  0.4975100000000000  0.3183400000000000  0.5000000000000000
  0.0024900000000000  0.5024900000000000  0.8208300000000001
  0.6816599999999999  0.1816600000000000  0.1791699999999999
  0.3183399999999999  0.8183399999999998  0.8208299999999999
  0.8183400000000000  0.9975100000000001  0.5000000000000000
  0.1816600000000000  0.0024900000000000  0.5000000000000000
  0.9975100000000000  0.4975100000000000  0.1791700000000000
  0.5024900000000000  0.6816600000000000  0.4999999999999999
