EA163
 1.0000000000000000
     5.4085894539877941    0.0000000000000000   -4.4957218626503135
    -1.1903774580846453    5.2759682892405566   -4.4957218626503135
     0.0000000000000000    0.0000000000000000    7.0330899999999996
 B   Mo  Si 
   4  16   2
Direct
  0.3856399999999999  0.8856400000000000  0.2712800000000000
  0.1143600000000000  0.3856400000000000  0.5000000000000000
  0.8856400000000000  0.6143599999999999  0.4999999999999999
  0.6143600000000000  0.1143599999999999  0.7287199999999999
  0.5587700000000000  0.6896200000000000  0.5000000000000000
  0.1896200000000000  0.0587699999999999  0.5000000000000000
  0.0343300000000000  0.5343300000000000  0.8319600000000000
  0.8103799999999999  0.9412300000000001  0.5000000000000000
  0.4656699999999999  0.2976300000000000  0.4999999999999999
  0.0587700000000000  0.5587700000000000  0.8691499999999999
  0.2023700000000000  0.0343299999999999  0.4999999999999999
  0.9656700000000000  0.4656700000000000  0.1680400000000000
  0.3103800000000000  0.8103800000000000  0.8691499999999999
  0.2976300000000000  0.7976300000000000  0.8319600000000000
  0.5343300000000000  0.7023700000000000  0.5000000000000000
  0.7023700000000000  0.2023700000000000  0.1680400000000000
  0.4412300000000000  0.3103800000000000  0.5000000000000000
  0.7976300000000000  0.9656699999999999  0.4999999999999999
  0.6896200000000000  0.1896200000000000  0.1308500000000000
  0.9412299999999999  0.4412300000000000  0.1308500000000000
  0.2500000000000000  0.2500000000000000 -0.0000000000000000
  0.7500000000000000  0.7500000000000001  0.0000000000000000
