EA174
 1.0000000000000000
     5.5720302181816166    0.0000000000000000   -3.8212511983996711
    -1.5462413909342407    5.3531914138475205   -3.8212511983996711
     0.0000000000000000    0.0000000000000000    6.7564399999999996
 B   Mo  Si 
   2   6   2
Direct
  0.2500000000000001  0.7500000000000001  0.5000000000000001
  0.7500000000000000  0.2500000000000000  0.4999999999999999
  0.5000000000000000  0.5000000000000000  0.5000000000000000
  0.5000000000000000  0.0000000000000000  0.4999999999999999
  0.5000000000000000  0.0000000000000000  0.0000000000000000
  0.0000000000000000  0.5000000000000000  0.5000000000000000
 -0.0000000000000000  0.0000000000000000  0.4999999999999999
  0.0000000000000000  0.5000000000000000  0.0000000000000001
  0.2500000000000000  0.2500000000000000  0.0000000000000000
  0.7500000000000000  0.7500000000000001  0.0000000000000003
