EA175
 1.0000000000000000
     4.8707590719386467    0.0000000000000000   -2.9632147710261192
    -1.5392709640992577    4.6211404259071776   -2.9632147710261192
     0.0000000000000000    0.0000000000000000    5.7013100000000003
 B   Mo  Si 
   2   6   2
Direct
  0.5000000000000000 -0.0000000000000000  0.4999999999999999
  0.0000000000000000  0.5000000000000000  0.5000000000000000
  0.2500000000000000  0.2500000000000000  0.0000000000000000
  0.2317800000000000  0.7317800000000000  0.9635600000000000
  0.7500000000000000  0.7499999999999999  0.0000000000000000
  0.7682200000000001  0.2682200000000000  0.0364400000000000
  0.7317799999999999  0.7682200000000000  0.5000000000000000
  0.2682200000000000  0.2317800000000000  0.5000000000000000
  0.7500000000000000  0.2500000000000000  0.5000000000000000
  0.2500000000000000  0.7499999999999999  0.4999999999999999
