EA227
 1.0000000000000000
     5.6403320564789130    0.0000000000000000   -3.2136668596412341
    -1.9049852680961639    5.3088960091228223   -3.2136668596412341
     0.0000000000000000    0.0000000000000000    6.4916099999999997
 B   Mo  Si 
   4   4   2
Direct
  0.2653600000000000  0.2346400000000000  0.5000000000000001
  0.7346400000000002  0.7653600000000002  0.5000000000000001
  0.2346400000000000  0.7346400000000000  0.9692700000000001
  0.7653600000000000  0.2653600000000000  0.0307299999999999
  0.5000000000000000  0.0000000000000000  0.5000000000000000
  0.0000000000000000  0.0000000000000000 -0.0000000000000000
  0.0000000000000000  0.5000000000000000  0.5000000000000000
  0.5000000000000000  0.5000000000000000  0.0000000000000000
  0.2500000000000000  0.2500000000000000  0.0000000000000000
  0.7500000000000001  0.7500000000000000  0.0000000000000001
