EA185
 1.0000000000000000
     5.3951494057414546    0.0000000000000000   -3.1048549793231297
    -1.8040988457075595    5.0845712174370243   -3.1048549793231297
     0.0000000000000000    0.0000000000000000    6.2247700000000004
 B   Mo  Si 
   8   6   2
Direct
  0.0914700000000000  0.5914700000000001  0.1613199999999998
  0.9085299999999999  0.4085300000000001  0.8386799999999996
  0.5914700000000001  0.4301500000000000  0.4999999999999998
  0.4085300000000000  0.5698500000000000  0.4999999999999998
  0.4301500000000000  0.9301500000000000  0.8386799999999998
  0.5698500000000000  0.0698500000000000  0.1613199999999999
  0.9301500000000001  0.0914700000000000  0.4999999999999998
  0.0698500000000001  0.9085300000000001  0.4999999999999999
  0.2500000000000000  0.2500000000000000 -0.0000000000000001
  0.1742500000000000  0.6742500000000000  0.8484999999999998
  0.7499999999999999  0.7500000000000001 -0.0000000000000001
  0.8257500000000000  0.3257500000000000  0.1514999999999999
  0.6742500000000000  0.8257500000000000  0.4999999999999997
  0.3257499999999999  0.1742500000000000  0.4999999999999998
 -0.0000000000000000  0.0000000000000000 -0.0000000000000001
  0.5000000000000000  0.5000000000000000 -0.0000000000000001
