EA47
 1.0000000000000000
     4.9162664948743977    0.0000000000000000   -2.8795142128101054
    -1.6153241227128370    4.6433182345394552   -2.8795142128101054
     0.0000000000000000    0.0000000000000000    5.6974799999999997
 B   Mo  Si 
   4   4   4
Direct
  0.0000000000000000  0.0000000000000000  0.5000000000000000
  0.0000000000000000  0.5000000000000000 -0.0000000000000000
  0.5000000000000000  0.5000000000000000  0.4999999999999999
  0.5000000000000000  0.0000000000000000 -0.0000000000000001
  0.2500000000000000  0.2500000000000000 -0.0000000000000001
  0.7500000000000000  0.2500000000000000  0.4999999999999999
  0.7500000000000000  0.7500000000000000  0.0000000000000000
  0.2500000000000001  0.7500000000000000  0.5000000000000000
  0.7229800000000001  0.2229800000000000  0.9459599999999998
  0.2770200000000000  0.7770200000000002  0.0540400000000001
  0.2229800000000000  0.2770200000000000  0.4999999999999999
  0.7770200000000000  0.7229800000000000  0.4999999999999999
