EA210
 1.0000000000000000
     6.6172056942150803    0.0000000000000000   -2.2539694103841601
    -3.3904439397408672    5.6826315287045412   -2.2539694103841601
     0.0000000000000000    0.0000000000000000    6.9905499999999998
 B   Mo  Si 
   2  10   4
Direct
  0.7500000000000000  0.2500000000000000  0.5000000000000002
  0.2500000000000002  0.7500000000000001  0.5000000000000002
  0.5000000000000002  0.0000000000000000  0.5000000000000002
  0.7454800000000001  0.5248200000000000  0.2702900000000001
  0.2545200000000001  0.4751800000000000  0.7297100000000002
  0.0000000000000001  0.5000000000000000  0.5000000000000002
  0.5248200000000001  0.2545200000000000  0.7793400000000003
  0.4751800000000001  0.7454800000000000  0.2206600000000002
  0.7545200000000001  0.0248200000000000  0.7793400000000001
  0.2454800000000001  0.9751800000000000  0.2206600000000002
  0.9751800000000003  0.7545200000000001  0.7297100000000002
  0.0248200000000001  0.2454800000000000  0.2702900000000001
  0.2429100000000001  0.2570900000000000  0.5000000000000002
  0.7570900000000004  0.7429100000000001  0.5000000000000002
  0.2570900000000001  0.7570900000000000  0.0141900000000002
  0.7429100000000000  0.2429100000000000  0.9858100000000001
