EA70
 1.0000000000000000
     5.1987125628895843    0.0000000000000000   -3.1628555532863047
    -1.6427340632474465    4.9323460045897560   -3.1628555532863047
     0.0000000000000000    0.0000000000000000    6.0852500000000003
 B   Mo  Si 
   2   4   2
Direct
  0.7499999999999999  0.2499999999999999  0.4999999999999999
  0.2499999999999999  0.7499999999999999  0.4999999999999999
  0.2500000000000000  0.2499999999999999 -0.0000000000000000
  0.0000000000000000  0.5000000000000000  0.5000000000000000
  0.7499999999999999  0.7499999999999999 -0.0000000000000001
  0.5000000000000000 -0.0000000000000000  0.5000000000000000
  0.5000000000000000  0.5000000000000000  0.0000000000000000
 -0.0000000000000000 -0.0000000000000000 -0.0000000000000000
