EA8
 1.0000000000000000
     6.1443041354172641    0.0000000000000000   -2.8545679519665161
    -2.5015627478339817    5.6120100790318430   -2.8545679519665161
     0.0000000000000000    0.0000000000000000    6.7750300000000001
 B   Mo  Si 
   8   6   2
Direct
  0.3046199999999999  0.4656000000000000  0.7702199999999998
  0.6953800000000000  0.5344000000000000  0.2297799999999998
  0.4655999999999999  0.6953800000000000  0.1609899999999997
  0.5343999999999999  0.3046200000000000  0.8390099999999999
  0.1953799999999999  0.9656000000000000  0.1609899999999998
  0.8046200000000000  0.0344000000000000  0.8390099999999998
  0.0343999999999999  0.1953800000000000  0.2297799999999998
  0.9655999999999999  0.8046199999999999  0.7702199999999998
  0.2445499999999999  0.7445500000000000  0.9891099999999997
  0.4999999999999999 -0.0000000000000000  0.4999999999999998
  0.7554500000000000  0.2554500000000000  0.0108899999999998
  0.7445500000000000  0.7554500000000000  0.4999999999999997
 -0.0000000000000001  0.4999999999999999  0.4999999999999998
  0.2554500000000000  0.2445500000000000  0.4999999999999998
  0.2499999999999999  0.2500000000000000 -0.0000000000000002
  0.7499999999999998  0.7499999999999999 -0.0000000000000004
