EA223
 1.0000000000000000
     5.0173273639947338    0.0000000000000000   -2.7840125436875556
    -1.7392362013811706    4.7062332404265241   -2.7840125436875556
     0.0000000000000000    0.0000000000000000    5.7379699999999998
 B   Mo  Si 
   4   6   4
Direct
  0.5000000000000000  0.5000000000000000  0.5000000000000002
  0.5000000000000000  0.0000000000000000  0.0000000000000002
 -0.0000000000000000  0.0000000000000000  0.5000000000000001
  0.0000000000000000  0.5000000000000000  0.0000000000000002
  0.2500000000000000  0.2500000000000000  0.0000000000000002
  0.2153500000000000  0.7153500000000002  0.9307000000000002
  0.7500000000000000  0.7500000000000000  0.0000000000000003
  0.7846499999999998  0.2846500000000000  0.0693000000000002
  0.7153500000000000  0.7846500000000000  0.5000000000000001
  0.2846500000000000  0.2153500000000000  0.5000000000000002
  0.2268900000000000  0.2731100000000000  0.5000000000000002
  0.7731100000000000  0.7268900000000000  0.5000000000000003
  0.2731100000000000  0.7731100000000000  0.0462200000000002
  0.7268900000000000  0.2268900000000000  0.9537800000000002
