EA10
 1.0000000000000000
     5.5878549588891371    0.0000000000000000   -3.7201578811816693
    -1.6029421534009691    5.3530084526770727   -3.7201578811816693
     0.0000000000000000    0.0000000000000000    6.7129500000000002
 B   Mo  Si 
   2   8   4
Direct
  0.7500000000000000  0.2500000000000000  0.5000000000000001
  0.2500000000000000  0.7500000000000000  0.5000000000000001
  0.5000000000000000  0.0000000000000000  0.0000000000000002
  0.7398500000000000  0.2398500000000000  0.9797100000000001
  0.2601500000000000  0.7601500000000001  0.0202900000000002
  0.0000000000000000  0.0000000000000000  0.5000000000000001
  0.2398500000000000  0.2601500000000000  0.5000000000000002
  0.7601500000000001  0.7398500000000001  0.5000000000000003
  0.0000000000000000  0.5000000000000000  0.0000000000000001
  0.5000000000000000  0.5000000000000000  0.5000000000000002
  0.3679100000000000  0.3679100000000000  0.0000000000000002
  0.6320900000000000  0.6320900000000000  0.0000000000000001
  0.1320900000000000  0.1320900000000000  0.0000000000000001
  0.8679100000000001  0.8679100000000000  0.0000000000000001
