%mem=6GB
%nprocshared=10
%rwf=tmp.rwf
%nosave
%chk=SiH.chk
#p B3LYP/6-311+G(2d,p) scf=(verytight,maxcycle=1000) opt freq Temp=1000

B

0 1
B       8.53558422       5.40319423       4.42720577 
B       7.75459874       6.77564243       4.37740800 
B       6.18196020       6.97154283       4.10478674 
B       7.02002093       5.40296731       3.73142167 
B       4.57658878       6.80107955       4.24848936 
B       7.75504425       4.03047588       4.37731512 
B       6.18235621       3.83435936       4.10484584 
B       4.57694767       4.00460652       4.24853157 
B       5.45194891       5.40291328       4.14734028 
B       3.84183772       5.40276199       4.44845721 

