EA197
 1.0000000000000000
     4.8981831533692581    0.0000000000000000   -2.7643787085255873
    -1.6700566988625369    4.6046833579014717   -2.7643787085255873
     0.0000000000000000    0.0000000000000000    5.6244100000000001
 B   Mo  Si 
   2   6   2
Direct
  0.7500000000000000  0.2500000000000000  0.5000000000000001
  0.2500000000000000  0.7500000000000000  0.5000000000000001
  0.0000000000000000  0.5000000000000000  0.0000000000000001
  0.5000000000000000  0.5000000000000000  0.0000000000000002
  0.5000000000000000  0.5000000000000000  0.5000000000000001
  0.5000000000000000  0.0000000000000000  0.0000000000000001
  0.0000000000000000  0.0000000000000000  0.5000000000000001
  0.0000000000000000  0.0000000000000000  0.0000000000000001
  0.5000000000000000  0.0000000000000000  0.5000000000000001
  0.0000000000000000  0.5000000000000000  0.5000000000000001
