EA26
 1.0000000000000000
     4.8566550183278556    0.0000000000000000   -2.9270632216183610
    -1.5496840705324924    4.6027792960978466   -2.9270632216183610
     0.0000000000000000    0.0000000000000000    5.6705199999999998
 B   Mo  Si 
   4   6   4
Direct
  0.5000000000000000  0.5000000000000000  0.5000000000000000
  0.5000000000000000  0.0000000000000000  0.0000000000000000
  0.0000000000000000  0.0000000000000000  0.5000000000000000
  0.0000000000000000  0.5000000000000000  0.0000000000000000
  0.2324700000000000  0.7324700000000001  0.9649500000000002
  0.2500000000000000  0.2500000000000000 -0.0000000000000000
  0.7675300000000000  0.2675300000000000  0.0350499999999999
  0.7499999999999999  0.7500000000000000  0.0000000000000000
  0.7324700000000001  0.7675300000000000  0.5000000000000000
  0.2675300000000000  0.2324700000000000  0.5000000000000000
  0.2913200000000000  0.2086800000000001  0.5000000000000000
  0.7086800000000000  0.7913200000000001  0.5000000000000000
  0.2086800000000000  0.7086800000000000  0.9173700000000000
  0.7913200000000000  0.2913200000000000  0.0826300000000000
