EA4
 1.0000000000000000
     5.6443565863470209    0.0000000000000000   -3.0215326664725963
    -2.0248508686161677    5.2686563973847589   -3.0215326664725963
     0.0000000000000000    0.0000000000000000    6.4022199999999998
 B   Mo  Si 
   4   4   4
Direct
 -0.0000000000000001 -0.0000000000000001  0.4999999999999999
 -0.0000000000000001  0.4999999999999999  0.0000000000000000
  0.4999999999999999  0.4999999999999999  0.5000000000000000
  0.4999999999999999 -0.0000000000000001  0.0000000000000000
 -0.0000000000000001  0.4999999999999999  0.5000000000000000
  0.2499999999999999  0.2499999999999999 -0.0000000000000000
  0.7499999999999999  0.7499999999999999 -0.0000000000000001
  0.4999999999999999 -0.0000000000000001  0.5000000000000000
  0.2460899999999999  0.7460900000000000  0.9921800000000002
  0.7539100000000000  0.2539099999999999  0.0078199999999999
  0.7460900000000000  0.7539099999999999  0.5000000000000001
  0.2539100000000000  0.2460899999999999  0.5000000000000000
