EA211
 1.0000000000000000
     5.9290357120064510    0.0000000000000000   -2.9913355438252265
    -2.2465404264861939    5.4869409133333180   -2.9913355438252265
     0.0000000000000000    0.0000000000000000    6.6409000000000002
 B   Mo  Si 
   4   8   2
Direct
  0.3442800000000000  0.1557200000000000  0.5000000000000000
  0.6557200000000000  0.8442800000000000  0.5000000000000000
  0.1557200000000000  0.6557200000000000  0.8114400000000002
  0.8442800000000000  0.3442800000000000  0.1885600000000000
 -0.0000000000000000  0.0000000000000000  0.5000000000000000
  0.6688499999999999  0.1688500000000000  0.8377000000000000
  0.3311500000000000  0.8311500000000001  0.1623000000000001
  0.0000000000000000  0.5000000000000000  0.0000000000000001
  0.1688500000000000  0.3311500000000000  0.5000000000000000
  0.8311500000000001  0.6688499999999999  0.5000000000000000
  0.5000000000000000  0.5000000000000000  0.5000000000000001
  0.5000000000000000  0.0000000000000000  0.0000000000000000
  0.2500000000000000  0.2500000000000000  0.0000000000000000
  0.7499999999999999  0.7500000000000000  0.0000000000000000
