EA184
 1.0000000000000000
     6.0298564509455392    0.0000000000000000   -2.7229646802502736
    -2.5135617852705243    5.4809831208130158   -2.7229646802502736
     0.0000000000000000    0.0000000000000000    6.6161700000000003
 B   Mo  Si 
   8   8   2
Direct
  0.4515000000000000  0.2953600000000000  0.7468600000000000
  0.5485000000000001  0.7046400000000000  0.2531400000000000
  0.7046400000000000  0.4515000000000000  0.1561400000000000
  0.2046400000000000  0.0485000000000000  0.2531400000000000
  0.2953600000000001  0.5485000000000000  0.8438600000000001
  0.7953600000000000  0.9515000000000001  0.7468600000000001
  0.9515000000000000  0.2046400000000000  0.1561400000000001
  0.0485000000000001  0.7953600000000001  0.8438600000000002
  0.2415400000000000  0.7415400000000000  0.9830800000000000
  0.7584600000000001  0.2584600000000000  0.0169200000000000
  0.5000000000000000  0.5000000000000000  0.5000000000000000
  0.0000000000000000  0.5000000000000000  0.0000000000000000
  0.7415400000000000  0.7584600000000000  0.5000000000000000
  0.0000000000000000  0.0000000000000000  0.5000000000000000
  0.2584600000000000  0.2415400000000000  0.5000000000000000
  0.5000000000000000  0.0000000000000000  0.0000000000000000
  0.2500000000000000  0.2500000000000000  0.0000000000000000
  0.7500000000000001  0.7500000000000000  0.0000000000000000
