EA73
 1.0000000000000000
     5.4926601894049787    0.0000000000000000   -3.1510253293373678
    -1.8425257873713914    5.1743999342093545   -3.1510253293373678
     0.0000000000000000    0.0000000000000000    6.3323200000000002
 B   Mo  Si 
   8   6   4
Direct
  0.4557100000000000  0.5472399999999999  0.5000000000000002
  0.5442900000000001  0.4527600000000000  0.5000000000000002
  0.9527600000000002  0.0442900000000000  0.5000000000000002
  0.5472400000000001  0.0472400000000000  0.0915300000000001
  0.4527600000000001  0.9527600000000002  0.9084700000000003
  0.9557099999999999  0.4557100000000001  0.9084700000000002
  0.0472400000000000  0.9557099999999999  0.5000000000000002
  0.0442900000000000  0.5442900000000001  0.0915300000000002
  0.2507500000000000  0.7507500000000001  0.0015000000000002
  0.7500000000000000  0.7500000000000000  0.0000000000000001
  0.2492500000000000  0.2507500000000000  0.5000000000000001
  0.7507500000000000  0.7492500000000000  0.5000000000000001
  0.2500000000000000  0.2500000000000000  0.0000000000000001
  0.7492500000000000  0.2492500000000000  0.9985000000000003
  0.5000000000000000  0.5000000000000000  0.5000000000000002
  0.0000000000000000  0.0000000000000000  0.5000000000000002
  0.0000000000000000  0.5000000000000000  0.0000000000000001
  0.5000000000000000  0.0000000000000000  0.0000000000000001
