EA59
 1.0000000000000000
     4.8280216282232020    0.0000000000000000   -2.8422198027965710
    -1.5781108295251911    4.5628235833008413   -2.8422198027965710
     0.0000000000000000    0.0000000000000000    5.6025000000000000
 B   Mo  Si 
   2   6   2
Direct
  0.5000000000000000  0.0000000000000000  0.5000000000000001
  0.0000000000000000  0.5000000000000000  0.5000000000000001
  0.2500000000000000  0.2500000000000000  0.0000000000000001
  0.7426500000000000  0.2426500000000000  0.9853000000000000
  0.7500000000000001  0.7500000000000001  0.0000000000000002
  0.2573500000000001  0.7573500000000000  0.0147000000000003
  0.2426500000000001  0.2573500000000000  0.5000000000000001
  0.7573500000000000  0.7426500000000000  0.5000000000000002
  0.2500000000000001  0.7500000000000001  0.5000000000000002
  0.7500000000000001  0.2500000000000000  0.5000000000000002
