EA144
 1.0000000000000000
     5.6554989571912309    0.0000000000000000   -2.9991101722525801
    -2.0469303292101162    5.2720721431094688   -2.9991101722525801
     0.0000000000000000    0.0000000000000000    6.4015100000000000
 B   Mo  Si 
   2   6   2
Direct
  0.2500000000000000  0.2500000000000000  0.0000000000000000
  0.7500000000000000  0.7500000000000000  0.0000000000000000
  0.5000000000000000  0.0000000000000000  0.0000000000000000
  0.5000000000000000  0.5000000000000000  0.0000000000000000
  0.0000000000000000  0.0000000000000000  0.5000000000000000
  0.0000000000000000  0.5000000000000000 -0.0000000000000000
  0.5000000000000000  0.5000000000000000  0.5000000000000000
  0.0000000000000000  0.0000000000000000 -0.0000000000000000
  0.2500000000000000  0.7500000000000000  0.4999999999999999
  0.7500000000000000  0.2500000000000000  0.5000000000000000
