EA91
 1.0000000000000000
     7.5402972703908047    0.0000000000000000   -3.1896447179171825
    -3.3120723671657264    6.7739397370009309   -3.1896447179171825
     0.0000000000000000    0.0000000000000000    8.1871799999999997
 B   Mo  Si 
   4  20   4
Direct
  0.1676000000000000  0.6676000000000000  0.8352000000000001
  0.8323999999999999  0.3324000000000000  0.1648000000000000
  0.6676000000000000  0.8324000000000000  0.5000000000000000
  0.3324000000000000  0.1676000000000000  0.5000000000000000
  0.5938600000000001  0.3231900000000000  0.1807000000000000
  0.9061399999999999  0.0868300000000000  0.7293200000000000
  0.4999999999999999  0.5000000000000000  0.5000000000000000
  0.9131700000000001  0.6424900000000000  0.8193000000000001
  0.0868300000000000  0.3575100000000000  0.1807000000000000
  0.6768100000000000  0.8575100000000000  0.2706800000000000
  0.5000000000000000  0.0000000000000000  0.0000000000000000
  0.3231900000000000  0.1424900000000000  0.7293200000000000
  0.3575100000000000  0.1768100000000000  0.2706800000000000
 -0.0000000000000000  0.0000000000000000  0.5000000000000000
  0.8231900000000000  0.0938600000000000  0.1807000000000000
  0.6424900000000000  0.8231900000000000  0.7293200000000001
  0.4061400000000001  0.6768100000000001  0.8193000000000000
  0.0938600000000000  0.9131700000000000  0.2706800000000000
  0.5868300000000000  0.4061400000000001  0.7293200000000000
  0.4131700000000000  0.5938600000000001  0.2706800000000001
  0.8575099999999999  0.5868300000000000  0.1806999999999999
  0.1424900000000000  0.4131700000000000  0.8193000000000000
  0.0000000000000000  0.5000000000000000  0.0000000000000000
  0.1768100000000000  0.9061399999999999  0.8193000000000000
  0.8027800000000000  0.6972200000000000  0.5000000000000000
  0.6972199999999998  0.1972200000000000  0.8944400000000001
  0.3027800000000000  0.8027800000000000  0.1055599999999999
  0.1972200000000000  0.3027800000000000  0.5000000000000000
