EA90
 1.0000000000000000
     5.4028218117067492    0.0000000000000000   -3.0075425834135410
    -1.8669568855898560    5.0700054749874601   -3.0075425834135410
     0.0000000000000000    0.0000000000000000    6.1835100000000001
 B   Mo  Si 
   2   6   2
Direct
  0.5000000000000000 -0.0000000000000000  0.5000000000000001
  0.0000000000000000  0.5000000000000000  0.5000000000000001
  0.7360900000000000  0.2360900000000000  0.9721700000000001
  0.5000000000000000  0.5000000000000000  0.0000000000000001
  0.2639100000000000  0.7639100000000000  0.0278300000000002
  0.2360900000000000  0.2639100000000000  0.5000000000000001
  0.7639099999999999  0.7360900000000000  0.5000000000000001
 -0.0000000000000000 -0.0000000000000000  0.0000000000000001
  0.2500000000000000  0.2500000000000000  0.0000000000000001
  0.7499999999999999  0.7499999999999999  0.0000000000000000
