EA149
 1.0000000000000000
     5.4771944088963114    0.0000000000000000   -3.1728477176749252
    -1.8195929520128051    5.1661146020805946   -3.1728477176749252
     0.0000000000000000    0.0000000000000000    6.3298199999999998
 B   Mo  Si 
   4   4   2
Direct
  0.7425800000000000  0.2425800000000000  0.9851599999999999
  0.2574199999999999  0.7574200000000000  0.0148400000000000
  0.2425799999999999  0.2574200000000000  0.4999999999999998
  0.7574199999999999  0.7425800000000000  0.4999999999999998
  0.4999999999999999  0.0000000000000000  0.4999999999999998
 -0.0000000000000000  0.0000000000000000 -0.0000000000000001
 -0.0000000000000000  0.5000000000000000  0.4999999999999998
  0.4999999999999999  0.5000000000000000 -0.0000000000000001
  0.2499999999999999  0.2500000000000000 -0.0000000000000001
  0.7500000000000000  0.7500000000000000  0.0000000000000000
