EA105
 1.0000000000000000
     5.5053859721022924    0.0000000000000000   -3.3263054686963582
    -1.7521567011684713    5.2191207685175405   -3.3263054686963582
     0.0000000000000000    0.0000000000000000    6.4322299999999997
 B   Mo  Si 
   2   6   2
Direct
  0.2500000000000000  0.2499999999999999 -0.0000000000000000
  0.7500000000000000  0.7499999999999999 -0.0000000000000001
  0.2407799999999999  0.7407799999999999  0.9815700000000001
  0.5000000000000000 -0.0000000000000000  0.4999999999999999
  0.7592200000000000  0.2592200000000000  0.0184300000000000
  0.7407800000000000  0.7592200000000000  0.5000000000000000
  0.0000000000000000  0.5000000000000000  0.5000000000000000
  0.2592200000000000  0.2407800000000000  0.4999999999999999
  0.0000000000000000 -0.0000000000000000 -0.0000000000000000
  0.5000000000000000  0.5000000000000000  0.0000000000000000
