EA202
 1.0000000000000000
     6.1885362569173310    0.0000000000000000   -4.1547620745861771
    -1.7587103533939179    5.9333733150751113   -4.1547620745861771
     0.0000000000000000    0.0000000000000000    7.4538599999999997
 B   Mo  Si 
   8  10   4
Direct
  0.1540700000000000  0.6540700000000000  0.0357699999999998
  0.3816999999999999  0.8816999999999999  0.0357699999999996
  0.6183000000000000  0.1183000000000000  0.9642299999999996
  0.1182999999999999  0.1540700000000000  0.4999999999999998
  0.3459300000000000  0.3817000000000000  0.4999999999999997
  0.8817000000000000  0.8459299999999998  0.4999999999999997
  0.6540699999999999  0.6182999999999998  0.4999999999999996
  0.8459300000000000  0.3459300000000000  0.9642299999999997
  0.9684099999999999  0.4684099999999999  0.9577799999999996
  0.7500000000000000  0.7499999999999999 -0.0000000000000004
  0.5315900000000000  0.4893700000000000  0.4999999999999997
  0.0106299999999999  0.9684100000000000  0.4999999999999998
  0.0315900000000000  0.5315900000000000  0.0422199999999998
  0.4893700000000000  0.9893700000000000  0.9577799999999996
  0.4684099999999999  0.5106300000000000  0.4999999999999997
  0.9893700000000000  0.0315900000000000  0.4999999999999996
  0.2500000000000000  0.2500000000000000 -0.0000000000000002
  0.5106299999999999  0.0106300000000000  0.0422199999999998
  0.6859000000000000  0.8140999999999999  0.4999999999999997
  0.1859000000000000  0.6858999999999998  0.8717999999999997
  0.8140999999999999  0.3141000000000000  0.1281999999999999
  0.3140999999999999  0.1859000000000000  0.4999999999999997
