EA205
 1.0000000000000000
     5.5815921316090531    0.0000000000000000   -3.0236234022873782
    -1.9798740069093079    5.2186463417638267   -3.0236234022873782
     0.0000000000000000    0.0000000000000000    6.3479500000000000
 B   Mo  Si 
   4   6   2
Direct
  0.0000000000000000  0.0000000000000000  0.4999999999999999
  0.0000000000000000  0.5000000000000000 -0.0000000000000001
  0.5000000000000000  0.5000000000000000  0.4999999999999999
  0.5000000000000000  0.0000000000000000 -0.0000000000000001
  0.2479200000000000  0.7479200000000000  0.9958300000000000
  0.5000000000000000  0.0000000000000000  0.4999999999999999
  0.7520800000000000  0.2520800000000000  0.0041700000000001
  0.7479200000000000  0.7520800000000000  0.4999999999999999
  0.0000000000000000  0.5000000000000000  0.4999999999999999
  0.2520800000000000  0.2479200000000000  0.4999999999999999
  0.2500000000000000  0.2500000000000000 -0.0000000000000001
  0.7500000000000000  0.7500000000000001  0.0000000000000000
