EA235
 1.0000000000000000
     5.5983323682760364    0.0000000000000000   -2.9506669217674890
    -2.0378083648809819    5.2142748655693509   -2.9506669217674890
     0.0000000000000000    0.0000000000000000    6.3283300000000002
 B   Mo  Si 
   2   4   2
Direct
  0.5000000000000000  0.5000000000000000  0.0000000000000000
  0.0000000000000000  0.0000000000000000 -0.0000000000000000
  0.2500000000000000  0.2500000000000000 -0.0000000000000001
  0.2500000000000000  0.7500000000000000  0.4999999999999999
  0.7500000000000000  0.7500000000000000  0.0000000000000000
  0.7500000000000000  0.2500000000000000  0.4999999999999999
  0.5000000000000000  0.0000000000000000  0.4999999999999999
  0.0000000000000000  0.5000000000000000  0.4999999999999999
