EA157
 1.0000000000000000
     6.4411960951632299    0.0000000000000000   -3.6576218067555817
    -2.1827352746402253    6.0600886014304525   -3.6576218067555817
     0.0000000000000000    0.0000000000000000    7.4072399999999998
 B   Mo  Si 
  16   6   2
Direct
  0.6847800000000001  0.8535100000000000  0.8281399999999999
  0.9746299999999999  0.1433700000000000  0.8281400000000000
  0.0253700000000000  0.8566300000000000  0.1718599999999999
  0.1433700000000000  0.3152200000000000  0.1687299999999999
  0.6464900000000000  0.8152199999999999  0.1718600000000000
  0.3535100000000000  0.1847800000000000  0.8281400000000000
  0.1464900000000000  0.9746300000000000  0.8312700000000000
  0.8566300000000001  0.6847799999999999  0.8312700000000000
  0.8535100000000001  0.0253700000000000  0.1687300000000000
  0.4746300000000001  0.6464900000000000  0.8312700000000000
  0.3566300000000000  0.5253700000000000  0.1718600000000000
  0.6433700000000000  0.4746300000000000  0.8281400000000000
  0.1847800000000001  0.3566300000000000  0.8312700000000001
  0.8152199999999999  0.6433700000000000  0.1687299999999999
  0.3152200000000001  0.1464900000000000  0.1718600000000000
  0.5253699999999999  0.3535100000000000  0.1687299999999999
  0.2427700000000001  0.2572300000000000  0.5000000000000000
  0.2572300000000000  0.7572299999999998  0.0144599999999999
  0.5000000000000000  0.5000000000000000  0.0000000000000000
  0.7427700000000000  0.2427700000000000  0.9855400000000001
  0.0000000000000000  0.0000000000000000 -0.0000000000000000
  0.7572300000000001  0.7427700000000000  0.5000000000000001
  0.0000000000000000  0.5000000000000000  0.5000000000000000
  0.5000000000000000  0.0000000000000000  0.5000000000000000
