EA36
 1.0000000000000000
     4.9635997444158146    0.0000000000000000   -2.5264620213522426
    -1.8656400411642382    4.5996423403966356   -2.5264620213522426
     0.0000000000000000    0.0000000000000000    5.5695899999999998
 B   Mo  Si 
   4   6   2
Direct
  0.5000000000000000  0.0000000000000000 -0.0000000000000000
  0.0000000000000000  0.0000000000000000  0.5000000000000000
  0.0000000000000000  0.5000000000000000 -0.0000000000000001
  0.5000000000000000  0.5000000000000000  0.4999999999999999
  0.2575100000000000  0.2424900000000000  0.4999999999999999
  0.2500000000000000  0.2500000000000000 -0.0000000000000001
  0.7424900000000000  0.7575100000000000  0.4999999999999998
  0.7500000000000001  0.7500000000000001  0.0000000000000001
  0.2424900000000000  0.7424900000000000  0.9849799999999999
  0.7575100000000001  0.2575100000000000  0.0150200000000000
  0.7500000000000000  0.2500000000000000  0.4999999999999999
  0.2500000000000001  0.7500000000000001  0.4999999999999999
