EA5
 1.0000000000000000
     5.4884672995480894    0.0000000000000000   -2.8619870237810843
    -2.0178053602070025    5.1040900096421291   -2.8619870237810843
     0.0000000000000000    0.0000000000000000    6.1898499999999999
 B   Mo  Si 
   2   4   4
Direct
 -0.0000000000000000 -0.0000000000000001 -0.0000000000000001
  0.5000000000000000  0.4999999999999999 -0.0000000000000002
  0.5000000000000000 -0.0000000000000001  0.4999999999999998
  0.2500000000000000  0.2499999999999999 -0.0000000000000001
  0.7499999999999999  0.7500000000000000  0.0000000000000000
 -0.0000000000000000  0.4999999999999999  0.4999999999999998
  0.7491500000000000  0.2491499999999999  0.9983099999999998
  0.2508500000000001  0.7508500000000000  0.0016899999999998
  0.2491500000000000  0.2508499999999999  0.4999999999999998
  0.7508500000000000  0.7491499999999999  0.4999999999999999
