EA142
 1.0000000000000000
     5.5857620888726984    0.0000000000000000   -3.3552030589239328
    -1.7886945420305040    5.2916263992082602   -3.3552030589239328
     0.0000000000000000    0.0000000000000000    6.5159900000000004
 B   Mo  Si 
   4   6   8
Direct
  0.5000000000000000 -0.0000000000000000  0.0000000000000000
  0.0000000000000000 -0.0000000000000000  0.5000000000000000
  0.5000000000000000  0.5000000000000000  0.5000000000000000
  0.0000000000000000  0.5000000000000000  0.0000000000000001
  0.8007499999999999  0.6992500000000000  0.5000000000000001
  0.2500000000000000  0.2500000000000000  0.0000000000000001
  0.3007500000000000  0.8007500000000000  0.1015000000000001
  0.6992500000000000  0.1992500000000000  0.8985000000000000
  0.1992500000000000  0.3007500000000000  0.5000000000000000
  0.7500000000000000  0.7500000000000000  0.0000000000000001
  0.5083100000000000  0.3148600000000000  0.5000000000000000
  0.3148600000000000  0.8148599999999999  0.8065399999999999
  0.0083100000000000  0.5083100000000000  0.1934600000000000
  0.9916900000000000  0.4916900000000000  0.8065399999999999
  0.6851400000000000  0.1851400000000000  0.1934600000000001
  0.8148600000000000  0.0083100000000000  0.5000000000000000
  0.1851400000000000  0.9916900000000000  0.5000000000000000
  0.4916900000000001  0.6851400000000000  0.5000000000000000
