EA98
 1.0000000000000000
     7.0753334748826182    0.0000000000000000   -1.9922513496307253
    -4.0576743596406937    5.7961730971313337   -1.9922513496307253
     0.0000000000000000    0.0000000000000000    7.3504699999999996
 B   Mo  Si 
   4  10   2
Direct
  0.2293900000000000  0.7293900000000000  0.9587799999999999
  0.7706100000000000  0.2706100000000000  0.0412200000000000
  0.7293899999999998  0.7706099999999999  0.4999999999999999
  0.2706100000000000  0.2293900000000000  0.4999999999999999
  0.5037799999999999  0.2601700000000000  0.7639599999999999
 -0.0000000000000000 -0.0000000000000000  0.0000000000000000
  0.4962199999999999  0.7398299999999999  0.2360400000000000
  0.2601700000000000  0.4962200000000000  0.7563900000000000
  0.7398300000000000  0.5037799999999999  0.2436100000000000
  0.9962200000000000  0.7601700000000000  0.7563900000000001
  0.4999999999999999  0.4999999999999999  0.0000000000000000
  0.0037799999999999  0.2398300000000000  0.2436100000000000
  0.2398300000000000  0.9962199999999999  0.2360400000000000
  0.7601699999999999  0.0037800000000000  0.7639599999999999
  0.5000000000000000 -0.0000000000000000  0.4999999999999999
 -0.0000000000000001  0.4999999999999999  0.4999999999999999
