EA228
 1.0000000000000000
     5.7144422259514860    0.0000000000000000   -4.2695071072856443
    -1.4350983373509250    5.5313056971993504   -4.2695071072856443
     0.0000000000000000    0.0000000000000000    7.1332700000000004
 B   Mo  Si 
   4   8   4
Direct
  0.2714700000000001  0.7714700000000001  0.5000000000000001
  0.7285300000000001  0.2285300000000000  0.5000000000000000
  0.7714700000000001  0.2714700000000000  0.5000000000000001
  0.2285300000000001  0.7285300000000000  0.5000000000000000
  0.5000000000000000  0.0000000000000000  0.0000000000000000
  0.1308700000000000  0.1308700000000000  0.0000000000000000
  0.8691300000000000  0.8691300000000000  0.0000000000000001
  0.0000000000000000  0.0000000000000000  0.5000000000000000
  0.0000000000000000  0.5000000000000000  0.0000000000000001
  0.5000000000000000  0.5000000000000000  0.5000000000000000
  0.3691300000000000  0.3691300000000000  0.0000000000000001
  0.6308700000000002  0.6308700000000000  0.0000000000000000
  0.2462800000000001  0.7462800000000002  0.9925600000000001
  0.7537199999999999  0.2537200000000000  0.0074400000000000
  0.7462800000000001  0.7537199999999999  0.5000000000000000
  0.2537200000000001  0.2462800000000000  0.5000000000000000
