EA99
 1.0000000000000000
     6.0455150567532216    0.0000000000000000   -3.2752096404001514
    -2.1443487861049424    5.6524349253184836   -3.2752096404001514
     0.0000000000000000    0.0000000000000000    6.8757000000000001
 B   Mo  Si 
   2  12   4
Direct
  0.2500000000000001  0.2500000000000000  0.0000000000000000
  0.7500000000000001  0.7499999999999999  0.0000000000000000
  0.5037000000000000  0.0037000000000000  0.2046200000000000
  0.0000000000000000  0.0000000000000000  0.5000000000000000
  0.7990800000000000  0.2990800000000000  0.7953799999999999
  0.7009200000000000  0.4963000000000000  0.5000000000000000
  0.0000000000000000  0.5000000000000000  0.0000000000000000
  0.2990800000000000  0.5037000000000000  0.5000000000000000
  0.4963000000000001  0.9962999999999999  0.7953799999999999
  0.0037000000000000  0.7990800000000000  0.5000000000000000
  0.5000000000000000  0.0000000000000000  0.0000000000000000
  0.9963000000000000  0.2009200000000000  0.5000000000000000
  0.2009200000000000  0.7009200000000000  0.2046200000000000
  0.5000000000000000  0.5000000000000000  0.5000000000000000
  0.8487100000000001  0.3487100000000000  0.1974100000000001
  0.1512900000000001  0.6512900000000000  0.8025900000000000
  0.6512900000000000  0.8487100000000000  0.5000000000000000
  0.3487100000000000  0.1512900000000000  0.5000000000000000
