EA38
 1.0000000000000000
     5.5796780100457219    0.0000000000000000   -2.8703969914128957
    -2.0771117666885495    5.1786497665387410   -2.8703969914128957
     0.0000000000000000    0.0000000000000000    6.2747099999999998
 B   Mo  Si 
   4   6   4
Direct
  0.2406600000000000  0.7406599999999999  0.9813100000000000
  0.7593400000000000  0.2593399999999999  0.0186899999999999
  0.7406599999999999  0.7593400000000000  0.5000000000000000
  0.2593400000000000  0.2406599999999999  0.4999999999999999
  0.5000000000000000  0.4999999999999999  0.5000000000000000
  0.5000000000000000 -0.0000000000000001  0.4999999999999999
  0.5000000000000000 -0.0000000000000001 -0.0000000000000000
 -0.0000000000000000  0.4999999999999999  0.5000000000000000
  0.0000000000000000 -0.0000000000000001  0.5000000000000000
 -0.0000000000000000  0.4999999999999999  0.0000000000000000
  0.7295399999999999  0.2295399999999999  0.9590799999999999
  0.2704600000000000  0.7704600000000000  0.0409200000000001
  0.2295400000000000  0.2704599999999999  0.4999999999999999
  0.7704600000000000  0.7295400000000000  0.5000000000000000
