EA207
 1.0000000000000000
     5.2812383597287766    0.0000000000000000   -3.2499290108907450
    -1.6490576304867546    5.0171792417257839   -3.2499290108907450
     0.0000000000000000    0.0000000000000000    6.2010899999999998
 B   Mo  Si 
   2   6   2
Direct
  0.5000000000000000 -0.0000000000000000  0.4999999999999999
  0.0000000000000000  0.5000000000000000  0.4999999999999999
 -0.0000000000000000 -0.0000000000000000 -0.0000000000000000
  0.2557900000000000  0.2442100000000000  0.4999999999999999
  0.7442100000000000  0.7557900000000000  0.5000000000000001
  0.2442100000000000  0.7442099999999999  0.9884200000000000
  0.7557900000000000  0.2557900000000000  0.0115800000000000
  0.5000000000000000  0.5000000000000000  0.0000000000000001
  0.2500000000000000  0.2500000000000000  0.0000000000000000
  0.7499999999999999  0.7499999999999999  0.0000000000000000
