EA24
 1.0000000000000000
     5.2499272615040864    0.0000000000000000   -3.3128417458454309
    -1.5963933466406370    5.0013262774873333   -3.3128417458454309
     0.0000000000000000    0.0000000000000000    6.2077900000000001
 B   Mo  Si 
   2   6   4
Direct
  0.2500000000000000  0.7500000000000000  0.5000000000000002
  0.7499999999999999  0.2500000000000000  0.5000000000000002
  0.2500000000000000  0.2500000000000000  0.0000000000000001
  0.7374500000000000  0.2374500000000000  0.9748900000000004
  0.7499999999999999  0.7500000000000000  0.0000000000000001
  0.2625500000000000  0.7625500000000000  0.0251100000000002
  0.2374500000000000  0.2625500000000000  0.5000000000000002
  0.7625500000000000  0.7374499999999999  0.5000000000000002
  0.0097000000000000  0.5097000000000000  0.0200100000000002
  0.5000000000000000  0.5000000000000000  0.5000000000000002
  0.4896900000000000  0.9896899999999998  0.9799900000000002
 -0.0000000000000000 -0.0000000000000000  0.5000000000000002
