EA103
 1.0000000000000000
     4.7192676140732077    0.0000000000000000   -1.9342619432640884
    -2.1241253897334049    4.2142114495988618   -1.9342619432640884
     0.0000000000000000    0.0000000000000000    5.1002799999999997
 B   Mo  Si 
   4  10   4
Direct
  0.1850800000000000  0.6850800000000000  0.8701600000000002
  0.3149200000000000  0.1850800000000000  0.5000000000000000
  0.8149200000000000  0.3149200000000000  0.1298400000000000
  0.6850800000000000  0.8149200000000000  0.5000000000000000
  0.6758600000000000  0.1758600000000000  0.3238300000000000
  0.2500000000000000  0.2500000000000000  0.0000000000000000
  0.3241400000000000  0.8241400000000000  0.6761700000000002
  0.7500000000000000  0.7500000000000000  0.0000000000000000
  0.1758600000000000  0.8520300000000000  0.5000000000000000
  0.8241400000000000  0.1479700000000000  0.5000000000000000
  0.6479700000000000  0.3241400000000000  0.5000000000000000
  0.1479700000000000  0.6479700000000000  0.3238300000000000
  0.3520300000000000  0.6758600000000000  0.5000000000000000
  0.8520300000000001  0.3520300000000000  0.6761700000000002
  0.2867800000000000  0.2132200000000000  0.5000000000000000
  0.7867800000000000  0.2867800000000000  0.0735599999999999
  0.2132200000000000  0.7132200000000000  0.9264400000000002
  0.7132200000000001  0.7867800000000001  0.5000000000000000
