EA42
 1.0000000000000000
     5.3402530802399850    0.0000000000000000   -3.0955119112333178
    -1.7730898855034709    5.0373063455519498   -3.0955119112333178
     0.0000000000000000    0.0000000000000000    6.1725599999999998
 B   Mo  Si 
   4   6   2
Direct
  0.2480400000000000  0.7480400000000000  0.9960900000000000
  0.7519600000000000  0.2519600000000000  0.0039100000000001
  0.7480400000000001  0.7519600000000000  0.5000000000000000
  0.2519600000000000  0.2480400000000000  0.5000000000000000
  0.2500000000000000  0.2500000000000000  0.0000000000000000
  0.5000000000000000  0.0000000000000000  0.0000000000000000
  0.7500000000000000  0.7500000000000000  0.0000000000000000
  0.0000000000000000  0.0000000000000000  0.5000000000000000
  0.0000000000000000  0.5000000000000000 -0.0000000000000000
  0.5000000000000000  0.5000000000000000  0.5000000000000000
  0.5000000000000000  0.5000000000000000  0.0000000000000000
  0.0000000000000000  0.0000000000000000 -0.0000000000000000
