EA253
 1.0000000000000000
     2.5863490000000002    0.0000000000000000   -0.9144129999999990
    -1.2931750000000000    2.2398440000000002   -0.9144129999999990
     0.0000000000000000    0.0000000000000000    2.7432379999999998
 Mo 
   1
Direct
  0.0000000000000000  0.0000000000000000  0.0000000000000000
