EA259
 1.0000000000000000
    -3.0266310000000001    3.0266310000000001    5.5797410000000003
     3.0266310000000001   -3.0266310000000001    5.5797410000000003
     3.0266310000000001    3.0266310000000001   -5.5797410000000003
 B   Mo  Si 
   4  10   2
Direct
  0.3790479999999999  0.8790479999999993  0.2580969999999991
  0.8790479999999989  0.6209520000000001  0.5000000000000001
  0.6209519999999998  0.1209519999999992  0.7419030000000001
  0.1209519999999988  0.3790480000000002  0.5000000000000001
 -0.0000000000000001  0.0000000000000001  0.0000000000000000
  0.8038079999999996  0.9757089999999993  0.5000000000000001
  0.3038079999999988  0.8038080000000002  0.8280989999999990
  0.1961919999999989  0.0242910000000000  0.5000000000000000
  0.5242909999999996  0.6961919999999994  0.5000000000000001
  0.0242909999999999  0.5242910000000001  0.8280989999999990
  0.6961919999999989  0.1961919999999991  0.1719010000000000
  0.9757089999999987  0.4757090000000001  0.1719010000000000
  0.4999999999999998  0.5000000000000002  0.0000000000000000
  0.4757089999999997  0.3038079999999991  0.5000000000000000
  0.7499999999999998  0.7500000000000003 -0.0000000000000000
  0.2499999999999999  0.2500000000000001  0.0000000000000000
