EA61
 1.0000000000000000
     5.9703679176777804    0.0000000000000000   -3.5078384483416407
    -1.9555086018850711    5.6410352933118233   -3.5078384483416407
     0.0000000000000000    0.0000000000000000    6.9246100000000004
 B   Mo  Si 
   4  10   8
Direct
  0.5000000000000000  0.5000000000000000  0.4999999999999999
  0.5000000000000000  0.0000000000000000 -0.0000000000000001
 -0.0000000000000000  0.0000000000000000  0.5000000000000000
 -0.0000000000000000  0.5000000000000000 -0.0000000000000001
  0.5016800000000000  0.0016800000000000  0.7528100000000000
  0.9983199999999999  0.7511300000000000  0.4999999999999998
  0.0016800000000000  0.2488700000000000  0.5000000000000000
  0.7488700000000000  0.5016800000000000  0.5000000000000000
  0.7511299999999999  0.2511300000000000  0.7528100000000000
  0.2488700000000000  0.7488700000000000  0.2471899999999998
  0.2511300000000000  0.4983200000000000  0.4999999999999999
  0.2500000000000000  0.2500000000000000 -0.0000000000000001
  0.4983199999999999  0.9983200000000000  0.2471899999999999
  0.7500000000000000  0.7500000000000000 -0.0000000000000001
  0.4845699999999999  0.2792500000000000  0.4999999999999999
  0.2207500000000000  0.0154300000000000  0.5000000000000000
  0.5154300000000001  0.7207500000000001  0.4999999999999998
  0.7207500000000000  0.2207500000000000  0.2053099999999999
  0.9845699999999999  0.4845700000000000  0.2053099999999999
  0.0154299999999999  0.5154300000000001  0.7946899999999999
  0.2792500000000000  0.7792500000000000  0.7946899999999999
  0.7792500000000000  0.9845699999999999  0.4999999999999998
