EA132
 1.0000000000000000
     5.3106236800514619    0.0000000000000000   -2.5693143791441067
    -2.0883718819669670    4.8827683493826610   -2.5693143791441067
     0.0000000000000000    0.0000000000000000    5.8994999999999997
 B   Mo  Si 
   4   4   2
Direct
  0.2432899999999999  0.7432899999999999  0.9865799999999999
  0.7567099999999999  0.2567099999999999  0.0134199999999999
  0.7432899999999999  0.7567100000000000  0.4999999999999999
  0.2567099999999998  0.2432899999999999  0.4999999999999998
  0.7499999999999999  0.2499999999999999  0.4999999999999999
  0.4999999999999999 -0.0000000000000001  0.5000000000000000
  0.2499999999999999  0.7499999999999999  0.4999999999999999
 -0.0000000000000001  0.5000000000000000  0.5000000000000000
  0.2499999999999999  0.2499999999999999 -0.0000000000000001
  0.7499999999999999  0.7499999999999999 -0.0000000000000001
