EA141
 1.0000000000000000
     5.7244216909270040    0.0000000000000000   -3.1117305256953753
    -2.0238885015572285    5.3547062504697696   -3.1117305256953753
     0.0000000000000000    0.0000000000000000    6.5155099999999999
 B   Mo  Si 
   2   6   2
Direct
  0.5000000000000000  0.0000000000000000  0.4999999999999999
 -0.0000000000000000  0.5000000000000000  0.5000000000000000
  0.2501300000000000  0.7501300000000001  0.0002600000000001
  0.5000000000000000  0.5000000000000000  0.0000000000000000
  0.7498699999999999  0.2498700000000000  0.9997399999999999
  0.7501300000000000  0.7498700000000000  0.4999999999999999
  0.2498700000000000  0.2501300000000000  0.4999999999999999
 -0.0000000000000000  0.0000000000000000 -0.0000000000000000
  0.2499999999999999  0.2500000000000000  0.0000000000000000
  0.7500000000000000  0.7500000000000001  0.0000000000000001
