EA75
 1.0000000000000000
     5.7313579913560773    0.0000000000000000   -3.4485141579264011
    -1.8319487401696446    5.4306931637197122   -3.4485141579264011
     0.0000000000000000    0.0000000000000000    6.6888500000000004
 B   Mo  Si 
   4   6   2
Direct
  0.2430099999999999  0.2569900000000000  0.5000000000000000
  0.7569900000000001  0.7430099999999999  0.5000000000000000
  0.2569900000000000  0.7569900000000002  0.0139700000000000
  0.7430099999999998  0.2430100000000000  0.9860300000000000
 -0.0000000000000000  0.0000000000000000  0.5000000000000000
  0.4999999999999999  0.0000000000000000  0.5000000000000000
 -0.0000000000000000  0.5000000000000000 -0.0000000000000000
 -0.0000000000000000  0.5000000000000000  0.5000000000000000
  0.4999999999999999  0.5000000000000000  0.5000000000000000
  0.4999999999999999  0.0000000000000000 -0.0000000000000001
  0.2499999999999999  0.2500000000000000 -0.0000000000000000
  0.7499999999999999  0.7500000000000000 -0.0000000000000001
