EA160
 1.0000000000000000
     5.3822744224958017    0.0000000000000000   -3.4718309082309133
    -1.5984135214545787    5.1394505711684477   -3.4718309082309133
     0.0000000000000000    0.0000000000000000    6.4048800000000004
 B   Mo  Si 
   8   6   2
Direct
  0.1103100000000000  0.6103100000000000  0.9811899999999999
  0.8896900000000000  0.3896900000000000  0.0188100000000000
  0.6103100000000000  0.6291200000000000  0.5000000000000000
  0.3896900000000000  0.3708800000000000  0.5000000000000000
  0.6291200000000000  0.1291200000000000  0.0188100000000002
  0.3708799999999999  0.8708799999999999  0.9811899999999999
  0.1291200000000000  0.1103100000000000  0.5000000000000000
  0.8708800000000001  0.8896900000000000  0.5000000000000000
  0.2500000000000000  0.2500000000000000  0.0000000000000000
  0.5000000000000000  0.0000000000000000  0.0000000000000000
  0.7500000000000001  0.7500000000000000  0.0000000000000000
  0.0000000000000000  0.0000000000000000  0.5000000000000000
  0.0000000000000000  0.5000000000000000 -0.0000000000000000
  0.5000000000000000  0.5000000000000000  0.5000000000000000
  0.7500000000000001  0.2500000000000000  0.5000000000000000
  0.2500000000000000  0.7500000000000000  0.4999999999999999
