EA33
 1.0000000000000000
     6.9190439482658519    0.0000000000000000   -4.5942172585072294
    -1.9904754944444376    6.6265508723656898   -4.5942172585072294
     0.0000000000000000    0.0000000000000000    8.3054199999999998
 B   Mo  Si 
   2  20   4
Direct
  0.2500000000000001  0.2499999999999999  0.0000000000000000
  0.7500000000000000  0.7499999999999999  0.0000000000000000
  0.1255700000000000  0.8786899999999999  0.2472199999999999
  0.3744300000000000  0.6216599999999999  0.7531299999999999
  0.7569800000000001  0.7430200000000000  0.5000000000000000
  0.6255700000000000  0.3783400000000000  0.2468699999999999
  0.2569800000000000  0.7569800000000000  0.0139700000000001
  0.6216600000000001  0.8685300000000000  0.2472199999999999
  0.7430200000000000  0.2430199999999999  0.9860299999999999
  0.3783400000000000  0.1314699999999999  0.7527799999999999
  0.8685300000000000  0.6213100000000000  0.2468700000000000
  0.1314700000000000  0.3786900000000000  0.7531300000000000
  0.6213100000000001  0.3744300000000000  0.7527800000000001
  0.1213100000000000  0.3685300000000000  0.2468700000000001
  0.8786900000000000  0.6314700000000000  0.7531299999999999
  0.8744300000000000  0.1213099999999999  0.7527799999999999
  0.8783400000000000  0.1255699999999999  0.2468700000000000
  0.1216600000000000  0.8744299999999999  0.7531299999999999
  0.6314700000000001  0.8783399999999999  0.7527800000000000
  0.3685300000000000  0.1216599999999999  0.2472199999999999
  0.2430200000000001  0.2569799999999999  0.5000000000000000
  0.3786900000000001  0.6255699999999998  0.2472200000000000
  0.5000000000000000 -0.0000000000000001 -0.0000000000000001
  0.0000000000000000 -0.0000000000000001  0.5000000000000000
  0.5000000000000000  0.5000000000000000  0.5000000000000000
  0.0000000000000000  0.5000000000000000  0.0000000000000000
