EA86
 1.0000000000000000
     5.7672772951686380    0.0000000000000000   -3.2176764763152192
    -1.9885622349993730    5.4136039416364747   -3.2176764763152192
     0.0000000000000000    0.0000000000000000    6.6041600000000003
 B   Mo  Si 
   2   6   4
Direct
  0.2500000000000000  0.2500000000000000  0.0000000000000001
  0.7499999999999999  0.7500000000000001  0.0000000000000000
  0.7511300000000000  0.2511300000000000  0.0022500000000000
  0.5000000000000000  0.5000000000000000  0.0000000000000001
  0.2488700000000000  0.7488700000000000  0.9977500000000000
  0.2511300000000000  0.2488700000000000  0.5000000000000001
  0.7488700000000000  0.7511300000000000  0.5000000000000001
 -0.0000000000000000  0.0000000000000000  0.0000000000000000
  0.5000000000000000  0.0000000000000000  0.0000000000000001
 -0.0000000000000000  0.0000000000000000  0.5000000000000000
  0.0000000000000000  0.5000000000000000  0.0000000000000001
  0.5000000000000000  0.5000000000000000  0.5000000000000001
