EA252
 1.0000000000000000
     4.2804640999999997   -0.0017224300000000    2.6653321299999999
     1.4793197100000000    4.0167142199999999    2.6653321299999999
    -0.0024716200000000   -0.0017224400000000    5.0424568699999996
 B  
  12
Direct
  0.0099700400000000  0.6542851199999999  0.0099700400000000
  0.0099700400000000  0.0099700399999999  0.6542851200000002
  0.6542851200000001  0.0099700399999999  0.0099700400000001
  0.3457148800000000  0.9900299599999999  0.9900299600000001
  0.9900299600000000  0.3457148799999999  0.9900299599999999
  0.9900299600000000  0.9900299600000000  0.3457148800000002
  0.2205655700000000  0.6316348300000000  0.2205655700000000
  0.2205655700000000  0.2205655699999999  0.6316348300000000
  0.6316348300000000  0.2205655699999999  0.2205655700000000
  0.3683651700000000  0.7794344299999999  0.7794344300000001
  0.7794344300000001  0.3683651699999999  0.7794344300000000
  0.7794344300000000  0.7794344300000000  0.3683651700000000
