EA87
 1.0000000000000000
     5.6408458748695027    0.0000000000000000   -3.0110456137972594
    -2.0290282252876235    5.2632866770696083   -3.0110456137972594
     0.0000000000000000    0.0000000000000000    6.3941800000000004
 B   Mo  Si 
   4   4   2
Direct
  0.5000000000000000  0.5000000000000000  0.4999999999999999
  0.5000000000000000  0.0000000000000000 -0.0000000000000001
  0.0000000000000000  0.0000000000000000  0.4999999999999998
  0.0000000000000000  0.5000000000000000 -0.0000000000000001
  0.7500000000000000  0.2500000000000000  0.4999999999999999
  0.2500000000000000  0.2500000000000000 -0.0000000000000001
  0.2500000000000000  0.7500000000000000  0.4999999999999999
  0.7500000000000000  0.7500000000000000  0.0000000000000000
  0.0000000000000000  0.5000000000000000  0.4999999999999999
  0.5000000000000000  0.0000000000000000  0.4999999999999999
