EA230
 1.0000000000000000
     4.8739878345765000    0.0000000000000000   -2.6981381227246839
    -1.6933116149205332    4.5703887347111882   -2.6981381227246839
     0.0000000000000000    0.0000000000000000    5.5709700000000000
 B   Mo  Si 
   2   6   2
Direct
  0.5000000000000000  0.0000000000000000  0.5000000000000001
 -0.0000000000000000  0.5000000000000000  0.5000000000000000
  0.2567400000000000  0.2432600000000000  0.5000000000000000
  0.2500000000000000  0.7500000000000001  0.5000000000000000
  0.7432600000000001  0.7567400000000000  0.5000000000000000
  0.7500000000000000  0.2500000000000000  0.5000000000000000
  0.2432600000000000  0.7432600000000000  0.9865100000000000
  0.7567399999999999  0.2567400000000000  0.0134899999999999
  0.2500000000000000  0.2500000000000000  0.0000000000000000
  0.7500000000000000  0.7500000000000001  0.0000000000000000
