EA194
 1.0000000000000000
     5.9760919144332307    0.0000000000000000   -2.9773559277059518
    -2.2900932506621752    5.5198865453037884   -2.9773559277059518
     0.0000000000000000    0.0000000000000000    6.6767000000000003
 B   Mo  Si 
   8   4   2
Direct
  0.2602000000000000  0.7601999999999999  0.2910199999999997
  0.7398000000000000  0.2398000000000000  0.7089799999999998
  0.7602000000000001  0.4691800000000000  0.4999999999999998
  0.2398000000000000  0.5308199999999998  0.4999999999999998
  0.4691800000000000  0.9691799999999999  0.7089799999999998
  0.5308199999999998  0.0308200000000000  0.2910199999999998
  0.9691800000000002  0.2602000000000000  0.4999999999999998
  0.0308200000000000  0.7398000000000000  0.4999999999999998
  0.2500000000000001  0.2500000000000000 -0.0000000000000001
  0.7500000000000001  0.2500000000000000  0.4999999999999998
  0.7500000000000001  0.7500000000000000 -0.0000000000000003
  0.2500000000000000  0.7500000000000000  0.4999999999999998
  0.0000000000000000  0.5000000000000000  0.4999999999999998
  0.5000000000000000 -0.0000000000000000  0.4999999999999998
