EA110
 1.0000000000000000
     5.0635820566779106    0.0000000000000000   -2.6433518940333123
    -1.8597423545260221    4.7096944295243297   -2.6433518940333123
     0.0000000000000000    0.0000000000000000    5.7120199999999999
 B   Mo  Si 
   8   6   4
Direct
  0.3368399999999999  0.6088900000000000  0.4999999999999999
  0.1088900000000000  0.8368400000000000  0.5000000000000000
  0.6088900000000000  0.1088899999999999  0.2720500000000000
  0.1631599999999999  0.6631599999999999  0.2720500000000000
  0.3911099999999999  0.8911099999999998  0.7279499999999999
  0.8368400000000000  0.3368399999999999  0.7279499999999999
  0.6631600000000000  0.3911100000000000  0.5000000000000000
  0.8911099999999998  0.1631599999999999  0.4999999999999999
  0.7500000000000000  0.7500000000000000 -0.0000000000000001
  0.8120399999999999  0.3120400000000000  0.1240799999999999
  0.2500000000000000  0.2500000000000000  0.0000000000000000
  0.3120399999999999  0.1879599999999999  0.4999999999999999
  0.6879599999999999  0.8120399999999999  0.4999999999999999
  0.1879599999999999  0.6879600000000000  0.8759199999999998
  0.2832600000000000  0.7832599999999998  0.0665200000000000
  0.7167400000000000  0.2167400000000000  0.9334800000000000
  0.7832600000000000  0.7167400000000000  0.5000000000000000
  0.2167399999999999  0.2832600000000000  0.4999999999999999
