EA222
 1.0000000000000000
     4.9164037489268306    0.0000000000000000   -2.7218428997901776
    -1.7079115194632741    4.6102130172201852   -2.7218428997901776
     0.0000000000000000    0.0000000000000000    5.6195599999999999
 B   Mo  Si 
   2   6   4
Direct
  0.5000000000000000 -0.0000000000000001  0.5000000000000000
 -0.0000000000000000  0.4999999999999999  0.5000000000000000
  0.2500000000000000  0.2499999999999999 -0.0000000000000001
  0.2416100000000000  0.7416100000000000  0.9832200000000000
  0.7499999999999999  0.7499999999999999  0.0000000000000000
  0.7583900000000000  0.2583899999999999  0.0167799999999999
  0.7416099999999999  0.7583899999999999  0.4999999999999998
  0.2583900000000000  0.2416099999999999  0.4999999999999999
  0.2530299999999999  0.7530299999999999  0.0060699999999999
  0.7469700000000001  0.2469699999999999  0.9939300000000000
  0.7530300000000000  0.7469700000000000  0.5000000000000000
  0.2469699999999999  0.2530299999999999  0.4999999999999999
