EA130
 1.0000000000000000
     5.5172376961778165    0.0000000000000000   -3.0938506660752885
    -1.8928618830097534    5.1823725925462236   -3.0938506660752885
     0.0000000000000000    0.0000000000000000    6.3254900000000003
 B   Mo  Si 
   4   6   2
Direct
  0.0000000000000000  0.0000000000000000  0.5000000000000000
  0.0000000000000000  0.5000000000000000  0.0000000000000000
  0.5000000000000000  0.5000000000000000  0.5000000000000000
  0.5000000000000000  0.0000000000000000  0.0000000000000000
  0.2500000000000000  0.2500000000000000  0.0000000000000000
  0.2474600000000000  0.7474600000000000  0.9949199999999999
  0.7500000000000001  0.7500000000000000  0.0000000000000001
  0.7525400000000000  0.2525400000000000  0.0050800000000001
  0.7474600000000001  0.7525400000000000  0.5000000000000000
  0.2525400000000000  0.2474600000000000  0.5000000000000000
  0.0000000000000000  0.5000000000000000  0.5000000000000000
  0.5000000000000000  0.0000000000000000  0.5000000000000000
