EA170
 1.0000000000000000
     5.7114684116537084    0.0000000000000000   -2.9772577579178230
    -2.1004230782563855    5.3112234287069962   -2.9772577579178230
     0.0000000000000000    0.0000000000000000    6.4408799999999999
 B   Mo  Si 
   2   8   2
Direct
  0.0000000000000001  0.5000000000000000  0.4999999999999999
  0.5000000000000000  0.0000000000000000  0.4999999999999999
  0.2451400000000001  0.7451400000000000  0.9902800000000002
  0.2379200000000000  0.2620800000000000  0.4999999999999999
  0.7548600000000000  0.2548600000000000  0.0097200000000000
  0.7620800000000000  0.7379200000000000  0.4999999999999999
  0.7451400000000001  0.7548600000000000  0.4999999999999999
  0.2620800000000001  0.7620800000000001  0.0241700000000002
  0.2548600000000000  0.2451400000000000  0.4999999999999999
  0.7379200000000001  0.2379200000000000  0.9758300000000000
  0.5000000000000001  0.5000000000000000  0.0000000000000001
  0.0000000000000001  0.0000000000000000 -0.0000000000000000
