EA81
 1.0000000000000000
     5.5125448457745838    0.0000000000000000   -3.2154658392407285
    -1.8185862515627760    5.2039306992217700   -3.2154658392407285
     0.0000000000000000    0.0000000000000000    6.3818000000000001
 B   Mo  Si 
   2   6   4
Direct
  0.2500000000000000  0.2500000000000000 -0.0000000000000000
  0.7500000000000000  0.7500000000000000  0.0000000000000000
  0.7406100000000001  0.2406100000000000  0.9812300000000000
  0.5000000000000000  0.5000000000000000  0.0000000000000000
  0.2593900000000000  0.7593900000000000  0.0187700000000000
  0.2406100000000000  0.2593900000000000  0.4999999999999999
  0.7593900000000000  0.7406100000000000  0.4999999999999999
  0.0000000000000000  0.0000000000000000 -0.0000000000000000
  0.5000000000000000  0.0000000000000000 -0.0000000000000000
  0.0000000000000000  0.0000000000000000  0.4999999999999999
  0.0000000000000000  0.5000000000000000 -0.0000000000000000
  0.5000000000000000  0.5000000000000000  0.4999999999999999
