EA115
 1.0000000000000000
     5.5678682754382347    0.0000000000000000   -3.3783994942825317
    -1.7643278344706090    5.2809378357583228   -3.3783994942825317
     0.0000000000000000    0.0000000000000000    6.5126600000000003
 B   Mo  Si 
   4   4   2
Direct
  0.2609300000000000  0.2390700000000000  0.5000000000000000
  0.7390699999999999  0.7609300000000000  0.4999999999999998
  0.2390699999999999  0.7390700000000000  0.9781300000000001
  0.7609300000000000  0.2609300000000000  0.0218700000000000
  0.4999999999999999  0.5000000000000000  0.0000000000000000
 -0.0000000000000000  0.5000000000000000  0.5000000000000000
  0.4999999999999999  0.0000000000000000  0.5000000000000000
 -0.0000000000000000  0.0000000000000000  0.0000000000000000
  0.2499999999999999  0.2500000000000000 -0.0000000000000000
  0.7499999999999999  0.7500000000000000 -0.0000000000000001
