EA250
 1.0000000000000000
     4.4169891300000002    0.0035673400000000   -1.2275019300000001
    -2.5504257400000001    3.6062641400000000   -1.2275019199999999
    -0.0018447700000000   -0.0035673500000000    4.5843820099999997
 B   Mo 
   2   4
Direct
  0.7499999999999999  0.7500000000000001 -0.0000000000000000
  0.2499999999999999  0.2500000000000001  0.0000000000000000
  0.8300274999999988  0.6699724999999999  0.5000000000000000
  0.3300274999999999  0.8300274999999990  0.1600540000000000
  0.1699725000000000  0.3300275000000000  0.5000000000000000
  0.6699724999999999  0.1699725000000000  0.8399460000000000
