EA232
 1.0000000000000000
     5.4005534306053198    0.0000000000000000   -3.3822466949761529
    -1.6553777665454463    5.1405935267097220   -3.3822466949761529
     0.0000000000000000    0.0000000000000000    6.3722500000000002
 B   Mo  Si 
   2   4   2
Direct
  0.0000000000000000  0.5000000000000000  0.5000000000000000
  0.5000000000000000  0.0000000000000000  0.5000000000000000
  0.0000000000000000  0.0000000000000000 -0.0000000000000000
  0.2500000000000000  0.2500000000000000  0.0000000000000000
  0.7499999999999999  0.7500000000000000  0.0000000000000000
  0.5000000000000000  0.5000000000000000  0.0000000000000000
  0.7499999999999999  0.2500000000000000  0.4999999999999999
  0.2500000000000000  0.7500000000000000  0.5000000000000000
