EA180
 1.0000000000000000
     4.9667957920340093    0.0000000000000000   -2.8081327798259927
    -1.6904124883498977    4.6702854365656759   -2.8081327798259927
     0.0000000000000000    0.0000000000000000    5.7056699999999996
 B   Mo  Si 
   4   6   2
Direct
  0.2591100000000000  0.2408900000000000  0.5000000000000000
  0.7408900000000000  0.7591100000000000  0.5000000000000000
  0.2408900000000000  0.7408900000000000  0.9817699999999999
  0.7591100000000000  0.2591100000000000  0.0182300000000000
  0.0000000000000000  0.5000000000000000  0.5000000000000000
  0.0000000000000000  0.5000000000000000  0.0000000000000000
  0.5000000000000000  0.0000000000000000  0.5000000000000000
  0.5000000000000000  0.5000000000000000  0.5000000000000000
  0.5000000000000000  0.0000000000000000 -0.0000000000000000
 -0.0000000000000000  0.0000000000000000  0.5000000000000000
 -0.0000000000000000  0.0000000000000000 -0.0000000000000000
  0.5000000000000000  0.5000000000000000  0.0000000000000000
