EA231
 1.0000000000000000
     6.0556837921680398    0.0000000000000000   -3.6494191480526474
    -1.9325012735082174    5.7390543662362887   -3.6494191480526474
     0.0000000000000000    0.0000000000000000    7.0703300000000002
 B   Mo  Si 
  16   4   4
Direct
  0.5965400000000001  0.2998000000000001  0.7010499999999998
  0.9012500000000001  0.2002000000000000  0.2967400000000000
  0.2998000000000000  0.5987500000000000  0.7032600000000001
  0.4034600000000000  0.7002000000000002  0.2989500000000000
  0.3954900000000000  0.0987500000000000  0.2989500000000000
  0.6045100000000000  0.9012500000000001  0.7010500000000002
  0.1045100000000000  0.4034600000000000  0.7032600000000001
  0.9034600000000002  0.6045100000000000  0.7032600000000000
  0.0965400000000000  0.3954900000000001  0.2967400000000001
  0.2002000000000000  0.9034600000000000  0.2989500000000000
  0.8954900000000000  0.5965400000000000  0.2967400000000000
  0.7998000000000000  0.0965400000000000  0.7010499999999998
  0.0987500000000000  0.7998000000000000  0.7032600000000000
  0.4012500000000000  0.1045100000000000  0.7010499999999998
  0.7002000000000000  0.4012500000000000  0.2967399999999999
  0.5987500000000000  0.8954900000000000  0.2989500000000001
  0.2500000000000001  0.7500000000000000  0.5000000000000001
  0.7500000000000000  0.7500000000000000  0.0000000000000000
  0.2500000000000000  0.2500000000000000  0.0000000000000000
  0.7500000000000000  0.2500000000000000  0.5000000000000000
  0.5000000000000000  0.5000000000000000  0.5000000000000000
  0.5000000000000000  0.0000000000000000 -0.0000000000000000
  0.0000000000000000  0.0000000000000000  0.5000000000000000
  0.0000000000000000  0.5000000000000000  0.0000000000000000
