EA56
 1.0000000000000000
     4.8579608586100385    0.0000000000000000   -2.7980790270849774
    -1.6231721981770093    4.5787657418623633   -2.7980790270849774
     0.0000000000000000    0.0000000000000000    5.6061600000000000
 B   Mo  Si 
   4   6   4
Direct
  0.5000000000000000  0.5000000000000000  0.5000000000000000
  0.5000000000000000  0.0000000000000000  0.0000000000000000
  0.0000000000000000  0.0000000000000000  0.5000000000000000
  0.0000000000000000  0.5000000000000000 -0.0000000000000000
  0.2500000000000000  0.2500000000000000  0.0000000000000000
  0.2453500000000000  0.7453500000000000  0.9907000000000000
  0.7500000000000000  0.7500000000000001  0.0000000000000000
  0.7546500000000000  0.2546500000000000  0.0093000000000000
  0.7453500000000000  0.7546500000000000  0.5000000000000000
  0.2546499999999999  0.2453500000000000  0.4999999999999999
  0.7344300000000000  0.2344300000000000  0.9688600000000002
  0.2655700000000000  0.7655700000000000  0.0311400000000000
  0.2344300000000000  0.2655700000000000  0.4999999999999999
  0.7655700000000000  0.7344300000000000  0.5000000000000000
