EA221
 1.0000000000000000
     6.3833099423708681    0.0000000000000000   -3.7405743251710994
    -2.0962701873491967    6.0292866180006515   -3.7405743251710994
     0.0000000000000000    0.0000000000000000    7.3985500000000002
 B   Mo  Si 
   8   4   4
Direct
  0.0341800000000000  0.5341800000000000  0.2004899999999999
  0.9658200000000000  0.4658200000000000  0.7995099999999999
  0.5341800000000001  0.3336899999999999  0.4999999999999999
  0.4658200000000000  0.6663099999999998  0.4999999999999998
  0.3336900000000000  0.8336900000000000  0.7995099999999999
  0.6663100000000000  0.1663100000000000  0.2004899999999999
  0.8336900000000000  0.0341800000000000  0.4999999999999999
  0.1663100000000001  0.9658200000000000  0.5000000000000000
  0.5000000000000000 -0.0000000000000000  0.4999999999999999
  0.7500000000000000  0.2500000000000000  0.4999999999999998
  0.2500000000000001  0.7500000000000000  0.4999999999999999
  0.0000000000000000  0.5000000000000000  0.4999999999999999
  0.2444700000000000  0.2555300000000000  0.4999999999999999
  0.7555299999999999  0.7444699999999999  0.4999999999999998
  0.2555300000000000  0.7555299999999999  0.0110599999999999
  0.7444700000000001  0.2444700000000000  0.9889399999999999
