EA28
 1.0000000000000000
     5.9432352215851720    0.0000000000000000   -3.8168076615162896
    -1.7734132279100014    5.6724818573675826   -3.8168076615162896
     0.0000000000000000    0.0000000000000000    7.0632900000000003
 B   Mo  Si 
   2   6   2
Direct
  0.2500000000000000  0.2500000000000000 -0.0000000000000002
  0.7499999999999999  0.7500000000000000 -0.0000000000000001
  0.5000000000000000  0.0000000000000000 -0.0000000000000001
  0.2500000000000000  0.7500000000000000  0.4999999999999998
  0.7499999999999999  0.2500000000000000  0.4999999999999998
  0.0000000000000000  0.0000000000000000  0.4999999999999998
  0.0000000000000000  0.5000000000000000 -0.0000000000000002
  0.5000000000000000  0.5000000000000000  0.4999999999999998
  0.5000000000000000  0.5000000000000000 -0.0000000000000002
  0.0000000000000000  0.0000000000000000 -0.0000000000000001
