EA212
 1.0000000000000000
     7.0828863856505571    0.0000000000000000   -1.4111870386189032
    -4.7672732994217215    5.2383570745659123   -1.4111870386189032
     0.0000000000000000    0.0000000000000000    7.2221000000000002
 B   Mo  Si 
   2  10   8
Direct
  0.7499999999999998  0.7500000000000000  0.0000000000000001
  0.2499999999999999  0.2500000000000000  0.0000000000000001
  0.5064999999999998  0.7036100000000000  0.2101100000000001
  0.7963899999999999  0.9935000000000000  0.7898900000000001
  0.4999999999999998  0.0000000000000000  0.5000000000000001
  0.2036099999999999  0.0065000000000000  0.2101100000000001
  0.7036099999999997  0.4935000000000000  0.1971100000000001
  0.0064999999999999  0.7963900000000002  0.8028900000000001
  0.9934999999999999  0.2036100000000000  0.1971100000000001
  0.4934999999999999  0.2963900000000000  0.7898900000000001
  0.2963899999999999  0.5065000000000000  0.8028900000000001
 -0.0000000000000001  0.5000000000000000  0.5000000000000001
  0.0983899999999999  0.8894200000000000  0.5000000000000001
  0.5983899999999999  0.0983900000000000  0.2089700000000000
  0.6105799999999999  0.4016100000000000  0.5000000000000001
  0.3894199999999999  0.5983900000000000  0.5000000000000001
  0.1105799999999998  0.6105800000000000  0.2089700000000001
  0.8894199999999999  0.3894199999999999  0.7910300000000001
  0.9016099999999999  0.1105800000000000  0.5000000000000001
  0.4016099999999999  0.9016100000000000  0.7910300000000001
