EA190
 1.0000000000000000
     5.8292921154895314    0.0000000000000000   -5.0825287612753929
    -1.2060361666236963    5.7031678330997799   -5.0825287612753929
     0.0000000000000000    0.0000000000000000    7.7338699999999996
 B   Mo  Si 
   4   4   4
Direct
  0.5000000000000000  0.0000000000000000  0.0000000000000001
 -0.0000000000000000 -0.0000000000000000  0.5000000000000001
  0.0000000000000000  0.5000000000000000  0.0000000000000001
  0.5000000000000000  0.5000000000000000  0.5000000000000002
  0.2500000000000000  0.2500000000000000  0.0000000000000002
  0.5000000000000000  0.5000000000000000  0.0000000000000001
  0.7500000000000001  0.7500000000000000  0.0000000000000001
  0.0000000000000000  0.0000000000000000  0.0000000000000001
  0.8589000000000000  0.3589000000000001  0.5000000000000003
  0.1411000000000000  0.6411000000000001  0.5000000000000002
  0.3589000000000000  0.8589000000000001  0.5000000000000002
  0.6411000000000001  0.1411000000000001  0.5000000000000002
