EA107
 1.0000000000000000
     5.1949407647552928    0.0000000000000000   -2.8887361213485212
    -1.7969341289137888    4.8742627427808145   -2.8887361213485212
     0.0000000000000000    0.0000000000000000    5.9440900000000001
 B   Mo  Si 
   2   6   4
Direct
  0.2500000000000000  0.7500000000000000  0.5000000000000000
  0.7500000000000000  0.2500000000000000  0.5000000000000000
  0.7415300000000000  0.2415300000000000  0.9830600000000000
  0.2500000000000000  0.2500000000000000  0.0000000000000000
  0.2584700000000000  0.7584700000000000  0.0169400000000000
  0.7500000000000000  0.7500000000000000  0.0000000000000000
  0.2415300000000000  0.2584700000000000  0.5000000000000001
  0.7584700000000000  0.7415300000000000  0.5000000000000000
  0.5000000000000000  0.0000000000000000 -0.0000000000000000
  0.0000000000000000  0.0000000000000000  0.5000000000000000
  0.0000000000000000  0.5000000000000000  0.0000000000000000
  0.5000000000000000  0.5000000000000000  0.5000000000000000
