EA116
 1.0000000000000000
     6.2562634644592903    0.0000000000000000   -2.0805754938890901
    -3.2548941047427840    5.3428921852905509   -2.0805754938890901
     0.0000000000000000    0.0000000000000000    6.5931499999999996
 B   Mo  Si 
   2   6   8
Direct
  0.0000000000000000  0.5000000000000000  0.5000000000000000
  0.5000000000000000  0.0000000000000000  0.5000000000000000
  0.2500000000000001  0.2500000000000001  0.0000000000000001
  0.7460200000000000  0.2460200000000001  0.9920400000000001
  0.7500000000000000  0.7500000000000000  0.0000000000000000
  0.2539800000000001  0.7539800000000001  0.0079600000000001
  0.2460200000000001  0.2539800000000001  0.5000000000000001
  0.7539800000000000  0.7460200000000001  0.5000000000000001
  0.9781700000000000  0.2380800000000001  0.2162400000000001
  0.0218300000000000  0.7619200000000000  0.7837600000000001
  0.2380800000000001  0.0218300000000001  0.2599100000000001
  0.7619200000000003  0.9781700000000001  0.7400900000000001
  0.5218300000000001  0.7380800000000001  0.2599100000000001
  0.4781700000000001  0.2619200000000001  0.7400900000000001
  0.2619200000000000  0.5218300000000000  0.7837600000000001
  0.7380800000000001  0.4781700000000000  0.2162400000000001
