EA133
 1.0000000000000000
     5.4684884955994599    0.0000000000000000   -4.7862883465161552
    -1.1256131990068841    5.3513887312290382   -4.7862883465161552
     0.0000000000000000    0.0000000000000000    7.2672499999999998
 B   Mo  Si 
   4   8   2
Direct
  0.3539499999999999  0.8539499999999999  0.4999999999999999
  0.6460499999999999  0.1460499999999997  0.4999999999999997
  0.8539499999999999  0.3539499999999998  0.4999999999999998
  0.1460499999999999  0.6460499999999997  0.4999999999999998
  0.3782600000000000  0.3782599999999998 -0.0000000000000001
  0.7434600000000000  0.2434599999999998  0.9869199999999997
  0.6217399999999998  0.6217399999999997 -0.0000000000000002
  0.2565399999999999  0.7565399999999999  0.0130799999999999
  0.2434600000000000  0.2565399999999998  0.4999999999999998
  0.7565399999999999  0.7434599999999998  0.4999999999999998
  0.1217400000000000  0.1217399999999998 -0.0000000000000001
  0.8782599999999999  0.8782599999999998 -0.0000000000000003
  0.4999999999999999 -0.0000000000000002  0.4999999999999998
 -0.0000000000000001  0.4999999999999997  0.4999999999999998
