EA111
 1.0000000000000000
     4.9561121408604007    0.0000000000000000   -2.8056322044801476
    -1.6846314344470241    4.6610153918279256   -2.8056322044801476
     0.0000000000000000    0.0000000000000000    5.6951400000000003
 B   Mo  Si 
   4   6   2
Direct
 -0.0000000000000000  0.4999999999999999 -0.0000000000000001
  0.5000000000000000  0.4999999999999999  0.4999999999999998
  0.5000000000000000 -0.0000000000000001 -0.0000000000000002
 -0.0000000000000000 -0.0000000000000001  0.4999999999999998
  0.2499999999999999  0.2499999999999999 -0.0000000000000002
  0.2465700000000000  0.2534299999999999  0.4999999999999998
  0.7499999999999999  0.7500000000000000 -0.0000000000000002
  0.7534300000000000  0.7465700000000000  0.4999999999999999
  0.2534299999999999  0.7534300000000000  0.0068699999999997
  0.7465700000000000  0.2465699999999999  0.9931299999999996
  0.7499999999999999  0.2499999999999999  0.4999999999999998
  0.2500000000000000  0.7500000000000000  0.4999999999999998
