EA168
 1.0000000000000000
     5.6286890982409057    0.0000000000000000   -3.0168118979717615
    -2.0168505337585212    5.2549457551086096   -3.0168118979717615
     0.0000000000000000    0.0000000000000000    6.3861800000000004
 B   Mo  Si 
   4   6   2
Direct
  0.7456299999999999  0.2456300000000000  0.9912600000000001
  0.2543700000000000  0.7543700000000000  0.0087400000000000
  0.2456299999999999  0.2543700000000000  0.5000000000000001
  0.7543699999999999  0.7456300000000000  0.5000000000000001
  0.0000000000000000  0.5000000000000000  0.0000000000000001
  0.5000000000000000  0.5000000000000000  0.0000000000000000
  0.5000000000000000  0.5000000000000000  0.5000000000000001
  0.5000000000000000  0.0000000000000000  0.0000000000000000
 -0.0000000000000000  0.0000000000000000  0.5000000000000000
 -0.0000000000000000  0.0000000000000000  0.0000000000000000
  0.2499999999999999  0.2500000000000000  0.0000000000000000
  0.7500000000000000  0.7500000000000000  0.0000000000000000
