EA134
 1.0000000000000000
     5.0160373302711294    0.0000000000000000   -5.2668058758821248
    -0.8026127191846540    4.9514082160206234   -5.2668058758821248
     0.0000000000000000    0.0000000000000000    7.2732299999999999
 B   Mo  Si 
   4   6   2
Direct
  0.4293200000000000  0.9293200000000003  0.5000000000000001
  0.5706800000000000  0.0706800000000001  0.5000000000000000
  0.9293199999999999  0.4293199999999999  0.4999999999999999
  0.0706800000000000  0.5706800000000000  0.5000000000000000
  0.2500000000000000  0.7500000000000000  0.5000000000000000
  0.2380400000000002  0.7380399999999999  0.9760699999999999
  0.7500000000000000  0.2500000000000000  0.5000000000000000
  0.7619599999999997  0.2619600000000001  0.0239300000000000
  0.7380400000000000  0.7619600000000000  0.5000000000000000
  0.2619600000000000  0.2380400000000000  0.5000000000000000
  0.2500000000000000  0.2500000000000000  0.0000000000000000
  0.7500000000000000  0.7500000000000000  0.0000000000000000
