EA206
 1.0000000000000000
     5.3973856893136096    0.0000000000000000   -3.1917507046905529
    -1.7561382125272960    5.1036997225256879   -3.1917507046905529
     0.0000000000000000    0.0000000000000000    6.2704899999999997
 B   Mo  Si 
   2   6   2
Direct
  0.2500000000000000  0.2500000000000000  0.0000000000000000
  0.7500000000000001  0.7500000000000000 -0.0000000000000001
  0.2159600000000000  0.7159600000000000  0.9319100000000001
  0.0000000000000000  0.0000000000000000 -0.0000000000000000
  0.7840400000000000  0.2840400000000000  0.0680900000000000
  0.7159600000000002  0.7840400000000000  0.5000000000000000
  0.2840400000000000  0.2159600000000000  0.5000000000000000
  0.5000000000000000  0.5000000000000000  0.0000000000000000
  0.5000000000000000  0.0000000000000000  0.5000000000000000
  0.0000000000000000  0.5000000000000000  0.4999999999999999
