EA241
 1.0000000000000000
     4.9326936522179237    0.0000000000000000   -2.6883868185715021
    -1.7396622839072722    4.6157384896223848   -2.6883868185715021
     0.0000000000000000    0.0000000000000000    5.6177299999999999
 B   Mo  Si 
   4   6   2
Direct
  0.2478200000000000  0.2521800000000000  0.5000000000000000
  0.7521800000000001  0.7478200000000002  0.5000000000000000
  0.2521800000000000  0.7521800000000000  0.0043599999999999
  0.7478200000000000  0.2478200000000000  0.9956400000000001
  0.5000000000000000  0.0000000000000000 -0.0000000000000000
  0.0000000000000000  0.0000000000000000 -0.0000000000000000
  0.0000000000000000  0.0000000000000000  0.5000000000000000
  0.0000000000000000  0.5000000000000000  0.0000000000000000
  0.5000000000000000  0.5000000000000000  0.5000000000000000
  0.5000000000000000  0.5000000000000000  0.0000000000000000
  0.5000000000000000  0.0000000000000000  0.5000000000000000
  0.0000000000000000  0.5000000000000000  0.5000000000000000
