EA148
 1.0000000000000000
     6.6969951682631255    0.0000000000000000   -2.7286308815705276
    -3.0278291865418248    5.9734407757058339   -2.7286308815705276
     0.0000000000000000    0.0000000000000000    7.2315399999999999
 B   Mo  Si 
   2  10   4
Direct
  0.5000000000000000  0.0000000000000000  0.5000000000000000
 -0.0000000000000001  0.5000000000000000  0.4999999999999999
  0.2499999999999999  0.2500000000000000  0.0000000000000000
  0.7122600000000000  0.2122600000000000  0.2465200000000000
  0.7500000000000001  0.7500000000000001  0.0000000000000000
  0.2877399999999999  0.7877400000000000  0.7534800000000000
  0.2122599999999999  0.9657400000000000  0.5000000000000000
  0.7877399999999999  0.0342600000000000  0.4999999999999999
  0.9657400000000000  0.4657399999999999  0.7534800000000000
  0.0342599999999999  0.5342600000000000  0.2465200000000000
  0.4657399999999999  0.7122600000000000  0.5000000000000000
  0.5342600000000000  0.2877400000000000  0.5000000000000000
  0.1892999999999999  0.3107000000000000  0.5000000000000001
  0.8106999999999999  0.6893000000000000  0.5000000000000000
  0.3106999999999999  0.8107000000000000  0.1213899999999999
  0.6892999999999999  0.1893000000000000  0.8786100000000000
