EA263
 1.0000000000000000
     1.5875870000000001   -2.7497810000000000    0.0000000000000000
     1.5875870000000001    2.7497810000000000    0.0000000000000000
     0.0000000000000000    0.0000000000000000    5.8609289999999996
 B   Si 
   2   2
Direct
  0.6666669999999999  0.3333329999999999  0.5180939999999991
  0.3333330000000000  0.6666670000000000  0.0180940000000000
  0.6666669999999999  0.3333329999999999  0.8569049999999991
  0.3333330000000000  0.6666670000000000  0.3569050000000000
