EA46
 1.0000000000000000
     5.8283686628703695    0.0000000000000000   -2.4917830708291335
    -2.5390374288047939    5.2462529681152121   -2.4917830708291335
     0.0000000000000000    0.0000000000000000    6.3386800000000001
 B   Mo  Si 
   8   4   2
Direct
  0.5371499999999999  0.2486900000000000  0.7858399999999999
  0.4628499999999999  0.7513100000000000  0.2141600000000000
  0.2486899999999999  0.4628500000000000  0.7115399999999998
  0.7513100000000000  0.5371500000000000  0.2884600000000000
  0.9628499999999999  0.7486900000000000  0.7115399999999998
  0.0371499999999999  0.2513100000000000  0.2884600000000000
  0.2513099999999999  0.9628500000000001  0.2141600000000001
  0.7486899999999999  0.0371500000000000  0.7858399999999999
  0.2499999999999999  0.2500000000000000  0.0000000000000000
  0.2500000000000000  0.7500000000000001  0.5000000000000000
  0.7500000000000000  0.7500000000000001  0.0000000000000001
  0.7500000000000000  0.2500000000000000  0.5000000000000000
  0.4999999999999999  0.5000000000000000  0.0000000000000000
 -0.0000000000000000  0.0000000000000000 -0.0000000000000000
