EA177
 1.0000000000000000
     4.9458585228567502    0.0000000000000000   -2.8429611050426353
    -1.6559552233785246    4.6604000714831484   -2.8429611050426353
     0.0000000000000000    0.0000000000000000    5.7047299999999996
 B   Mo  Si 
   4   6   2
Direct
  0.5000000000000000  0.0000000000000000  0.0000000000000001
  0.0000000000000001  0.0000000000000000  0.5000000000000000
  0.0000000000000000  0.5000000000000000  0.0000000000000001
  0.5000000000000001  0.5000000000000000  0.5000000000000001
  0.7489300000000000  0.2489300000000000  0.9978700000000001
  0.2500000000000001  0.2500000000000000  0.0000000000000001
  0.2510700000000001  0.7510700000000001  0.0021300000000000
  0.7500000000000001  0.7500000000000000  0.0000000000000000
  0.2489300000000001  0.2510700000000000  0.5000000000000001
  0.7510700000000001  0.7489300000000000  0.5000000000000000
  0.2500000000000001  0.7500000000000000  0.5000000000000001
  0.7500000000000001  0.2500000000000000  0.5000000000000001
