EA265
 1.0000000000000000
     1.5667940000000000   -2.7137669999999998    0.0000000000000000
     1.5667940000000000    2.7137669999999998    0.0000000000000000
     0.0000000000000000    0.0000000000000000    3.5233409999999998
 Mo  Si 
   1   1
Direct
  0.3333330000000000  0.6666670000000000  0.5000000000000000
 -0.0000000000000000  0.0000000000000000  0.0000000000000000
