EA122
 1.0000000000000000
     6.5087174380240622    0.0000000000000000   -2.0579372021666469
    -3.4933343539911550    5.4918137058046419   -2.0579372021666469
     0.0000000000000000    0.0000000000000000    6.8263100000000003
 B   Mo  Si 
   8   6   8
Direct
  0.1565400000000000  0.8537500000000000  0.5000000000000000
  0.8537500000000000  0.3537500000000000  0.6972200000000001
  0.3537500000000000  0.6565400000000000  0.5000000000000000
  0.6462500000000000  0.3434600000000000  0.5000000000000000
  0.1462500000000000  0.6462500000000000  0.3027800000000000
  0.3434599999999999  0.8434599999999999  0.6972199999999998
  0.8434600000000000  0.1462500000000000  0.5000000000000000
  0.6565400000000000  0.1565400000000000  0.3027800000000000
 -0.0000000000000000  0.0000000000000000  0.5000000000000000
  0.5000000000000000  0.0000000000000000  0.0000000000000000
  0.0000000000000000  0.5000000000000000 -0.0000000000000000
  0.5000000000000000  0.5000000000000000  0.5000000000000000
  0.2500000000000000  0.2500000000000000  0.0000000000000000
  0.7499999999999999  0.7500000000000000 -0.0000000000000001
  0.7140000000000000  0.5715500000000000  0.2855400000000000
  0.2859999999999999  0.4284499999999999  0.7144600000000000
  0.5715500000000000  0.2860000000000000  0.8575500000000001
  0.4284500000000000  0.7140000000000000  0.1424500000000000
  0.0715500000000000  0.2140000000000000  0.2855400000000000
  0.9284500000000000  0.7860000000000000  0.7144600000000001
  0.2140000000000000  0.9284500000000000  0.1424499999999999
  0.7860000000000000  0.0715500000000000  0.8575500000000001
