EA171
 1.0000000000000000
     5.8424274432919212    0.0000000000000000   -5.1439101090385932
    -1.1932140388346570    5.7192830571373587   -5.1439101090385932
     0.0000000000000000    0.0000000000000000    7.7842000000000002
 B   Mo  Si 
   8   8   4
Direct
  0.1969100000000000  0.6969099999999999  0.6829699999999999
  0.3030900000000001  0.9860600000000002  0.5000000000000000
  0.0139400000000000  0.5139400000000001  0.3170300000000000
  0.6969100000000001  0.0139400000000000  0.5000000000000001
  0.9860599999999999  0.4860599999999998  0.6829699999999999
  0.8030900000000000  0.3030900000000000  0.3170300000000000
  0.5139400000000000  0.1969100000000001  0.5000000000000001
  0.4860600000000000  0.8030900000000000  0.5000000000000000
  0.5000000000000000  0.5000000000000000  0.4999999999999999
  0.3902100000000000  0.3902100000000000  0.0000000000000001
  0.6097900000000001  0.6097900000000001  0.0000000000000000
  0.5000000000000000  0.0000000000000000  0.0000000000000000
  0.0000000000000000 -0.0000000000000000  0.5000000000000000
  0.0000000000000000  0.5000000000000000  0.0000000000000000
  0.8902099999999998  0.8902099999999999 -0.0000000000000001
  0.1097900000000000  0.1097900000000000  0.0000000000000000
  0.7475699999999998  0.7524300000000000  0.4999999999999999
  0.2524300000000000  0.2475700000000000  0.5000000000000000
  0.2475700000000000  0.7475700000000000  0.9951399999999999
  0.7524300000000000  0.2524300000000000  0.0048600000000001
