EA43
 1.0000000000000000
     5.3127491764142549    0.0000000000000000   -3.1093730045476473
    -1.7468508445581203    5.0173514864275681   -3.1093730045476473
     0.0000000000000000    0.0000000000000000    6.1557700000000004
 B   Mo  Si 
   2   8   2
Direct
  0.0000000000000000  0.0000000000000000 -0.0000000000000001
  0.5000000000000000  0.5000000000000000 -0.0000000000000001
  0.0000000000000000  0.0000000000000000  0.5000000000000000
  0.6652100000000000  0.1652100000000000  0.8304300000000000
  0.3347900000000000  0.8347900000000000  0.1695700000000000
  0.0000000000000000  0.5000000000000000 -0.0000000000000001
  0.1652100000000000  0.3347900000000000  0.4999999999999999
  0.8347899999999999  0.6652100000000000  0.4999999999999998
  0.5000000000000000  0.5000000000000000  0.4999999999999998
  0.5000000000000000  0.0000000000000000 -0.0000000000000001
  0.0000000000000000  0.5000000000000000  0.4999999999999999
  0.5000000000000000  0.0000000000000000  0.4999999999999998
