EA219
 1.0000000000000000
     4.8252607342825486    0.0000000000000000   -2.7047102259190439
    -1.6562473587889543    4.5321061152971218   -2.7047102259190439
     0.0000000000000000    0.0000000000000000    5.5316000000000001
 B   Mo  Si 
   2   4   4
Direct
  0.0000000000000000  0.5000000000000000  0.5000000000000002
  0.5000000000000000  0.0000000000000000  0.5000000000000001
  0.2500000000000000  0.2500000000000000  0.0000000000000001
  0.2499999999999999  0.7500000000000000  0.5000000000000002
  0.7500000000000000  0.7500000000000000  0.0000000000000002
  0.7500000000000000  0.2500000000000000  0.5000000000000002
  0.2436800000000000  0.2563200000000000  0.5000000000000002
  0.7563199999999999  0.7436800000000000  0.5000000000000001
  0.2563200000000000  0.7563200000000000  0.0126500000000003
  0.7436800000000000  0.2436800000000000  0.9873500000000003
