EA6
 1.0000000000000000
     5.6295540021817470    0.0000000000000000   -3.7232951885956456
    -1.6268017587959314    5.3893779141065057   -3.7232951885956456
     0.0000000000000000    0.0000000000000000    6.7494300000000003
 B   Mo  Si 
   8   6   4
Direct
  0.9294099999999998  0.9056899999999999  0.5000000000000001
  0.0705900000000000  0.0943100000000000  0.5000000000000001
  0.5943100000000000  0.5705900000000000  0.5000000000000001
  0.9056900000000000  0.4056899999999999  0.9762800000000003
  0.0943100000000000  0.5943100000000000  0.0237200000000001
  0.4294100000000000  0.9294100000000000  0.0237200000000000
  0.4056900000000000  0.4294100000000000  0.5000000000000001
  0.5705899999999999  0.0705900000000000  0.9762800000000000
  0.2500000000000000  0.2500000000000000  0.0000000000000001
  0.8253600000000000  0.3253600000000000  0.1507200000000002
  0.3253600000000000  0.1746400000000000  0.5000000000000001
  0.6746400000000000  0.8253600000000000  0.5000000000000001
  0.1746399999999999  0.6746400000000000  0.8492800000000001
  0.7499999999999999  0.7500000000000001  0.0000000000000000
  0.5000000000000000  0.5000000000000000  0.5000000000000001
 -0.0000000000000000  0.0000000000000000  0.5000000000000001
  0.0000000000000000  0.5000000000000000  0.0000000000000001
  0.5000000000000000  0.0000000000000000  0.0000000000000001
