EA165
 1.0000000000000000
     5.3457478804046037    0.0000000000000000   -3.0682330444817403
    -1.7924543291333490    5.0362811556565656   -3.0682330444817403
     0.0000000000000000    0.0000000000000000    6.1636899999999999
 B   Mo  Si 
   4  10   2
Direct
  0.1821900000000000  0.6821900000000000  0.8643800000000001
  0.8178100000000000  0.3178100000000000  0.1356200000000000
  0.6821900000000000  0.8178100000000000  0.5000000000000000
  0.3178100000000000  0.1821900000000000  0.4999999999999999
  0.2500000000000000  0.2500000000000000  0.0000000000000000
  0.1588400000000000  0.6588400000000000  0.3287800000000000
  0.7500000000000001  0.7500000000000000  0.0000000000000000
  0.8411600000000000  0.3411600000000000  0.6712200000000000
  0.6588400000000000  0.3300700000000000  0.4999999999999999
  0.3411600000000000  0.6699300000000000  0.5000000000000000
  0.3300700000000000  0.8300700000000000  0.6712200000000000
  0.6699300000000000  0.1699300000000000  0.3287800000000000
  0.8300700000000000  0.1588400000000000  0.4999999999999999
  0.1699300000000000  0.8411600000000000  0.5000000000000000
  0.5000000000000000  0.5000000000000000  0.0000000000000000
 -0.0000000000000000 -0.0000000000000000 -0.0000000000000000
