EA97
 1.0000000000000000
     6.7616829883719189    0.0000000000000000   -3.1895938069230358
    -2.7174239904537338    6.1916042905974464   -3.1895938069230358
     0.0000000000000000    0.0000000000000000    7.4762199999999996
 B   Mo  Si 
   4  10   4
Direct
 -0.0000000000000001  0.5000000000000000 -0.0000000000000001
 -0.0000000000000001  0.0000000000000000  0.4999999999999998
  0.4999999999999998  0.5000000000000000  0.4999999999999998
  0.4999999999999998  0.0000000000000000 -0.0000000000000001
  0.5157699999999998  0.7084700000000000  0.4999999999999998
  0.2499999999999999  0.2500000000000001 -0.0000000000000001
  0.2915300000000000  0.7915300000000001  0.8072999999999998
  0.7499999999999998  0.7500000000000001 -0.0000000000000001
  0.7084699999999999  0.2084700000000001  0.1927000000000000
  0.7915299999999997  0.9842300000000000  0.4999999999999998
  0.4842299999999999  0.2915300000000001  0.4999999999999998
  0.9842299999999999  0.4842300000000000  0.1926999999999999
  0.2084699999999999  0.0157700000000000  0.4999999999999998
  0.0157700000000000  0.5157700000000001  0.8072999999999998
  0.2486799999999999  0.7486800000000000  0.9973700000000000
  0.2513199999999999  0.2486800000000001  0.4999999999999998
  0.7513200000000000  0.2513200000000001  0.0026299999999999
  0.7486799999999999  0.7513200000000001  0.4999999999999997
