EA50
 1.0000000000000000
     5.3977909678794456    0.0000000000000000   -3.0646277224287899
    -1.8295167465067839    5.0782886691455573   -3.0646277224287899
     0.0000000000000000    0.0000000000000000    6.2070999999999996
 B   Mo  Si 
   8   6   2
Direct
  0.1142999999999999  0.6142999999999998  0.1753599999999999
  0.8856999999999998  0.3857000000000000  0.8246399999999997
  0.6143000000000000  0.4389399999999999  0.4999999999999998
  0.3857000000000000  0.5610600000000000  0.4999999999999999
  0.4389400000000000  0.9389399999999999  0.8246399999999997
  0.5610600000000000  0.0610600000000000  0.1753599999999998
  0.9389400000000000  0.1143000000000000  0.4999999999999998
  0.0610600000000000  0.8856999999999999  0.4999999999999998
  0.2827600000000000  0.2172399999999999  0.4999999999999999
  0.2500000000000000  0.2500000000000000 -0.0000000000000001
  0.7172400000000000  0.7827600000000000  0.4999999999999999
  0.7500000000000000  0.7500000000000000  0.0000000000000000
  0.2172399999999999  0.7172399999999999  0.9344699999999997
  0.7827600000000000  0.2827600000000000  0.0655299999999998
 -0.0000000000000000 -0.0000000000000000 -0.0000000000000001
  0.5000000000000000  0.4999999999999999 -0.0000000000000001
