EA225
 1.0000000000000000
     5.0271874600480873    0.0000000000000000   -2.6668160771105409
    -1.8189872635749522    4.6865658102086698   -2.6668160771105409
     0.0000000000000000    0.0000000000000000    5.6907399999999999
 B   Mo  Si 
   4   6   4
Direct
  0.0000000000000000  0.0000000000000000  0.5000000000000000
  0.0000000000000000  0.5000000000000000  0.0000000000000000
  0.5000000000000000  0.5000000000000000  0.5000000000000000
  0.5000000000000000  0.0000000000000000  0.0000000000000000
  0.2500000000000000  0.2500000000000000  0.0000000000000000
  0.1766500000000001  0.6766500000000001  0.8532999999999999
  0.7500000000000000  0.7500000000000000  0.0000000000000000
  0.8233500000000000  0.3233500000000000  0.1466999999999999
  0.6766500000000000  0.8233500000000000  0.5000000000000000
  0.3233500000000000  0.1766500000000000  0.5000000000000000
  0.7117700000000000  0.2117700000000000  0.9235300000000000
  0.2882300000000000  0.7882300000000000  0.0764700000000000
  0.2117700000000000  0.2882300000000000  0.5000000000000000
  0.7882300000000000  0.7117700000000000  0.5000000000000000
