EA189
 1.0000000000000000
     5.4320618879031937    0.0000000000000000   -3.3430030912922581
    -1.6961579784525818    5.1604597146128430   -3.3430030912922581
     0.0000000000000000    0.0000000000000000    6.3783200000000004
 B   Mo  Si 
   2   4   2
Direct
  0.2500000000000000  0.7500000000000000  0.4999999999999998
  0.7500000000000000  0.2500000000000000  0.4999999999999998
  0.5000000000000000  0.0000000000000000  0.4999999999999999
  0.5000000000000000  0.5000000000000000 -0.0000000000000001
  0.0000000000000000  0.5000000000000000  0.4999999999999998
  0.0000000000000000  0.0000000000000000 -0.0000000000000001
  0.2500000000000000  0.2500000000000000 -0.0000000000000001
  0.7500000000000000  0.7500000000000000  0.0000000000000000
