EA124
 1.0000000000000000
     4.7995875899602058    0.0000000000000000   -2.6777835179117799
    -1.6547811932312892    4.5053013479930559   -2.6777835179117799
     0.0000000000000000    0.0000000000000000    5.4960500000000003
 B   Mo  Si 
   4   6   2
Direct
  0.4999999999999999  0.5000000000000000  0.4999999999999999
  0.4999999999999999 -0.0000000000000000 -0.0000000000000000
 -0.0000000000000001 -0.0000000000000000  0.4999999999999999
 -0.0000000000000001  0.5000000000000000 -0.0000000000000000
  0.7427899999999998  0.2427900000000000  0.9855800000000001
  0.2499999999999999  0.7500000000000000  0.4999999999999999
  0.2572099999999999  0.7572100000000000  0.0144200000000000
  0.7500000000000000  0.2500000000000000  0.4999999999999999
  0.2427899999999999  0.2572100000000000  0.5000000000000000
  0.7572099999999999  0.7427899999999998  0.4999999999999998
  0.2499999999999999  0.2500000000000000 -0.0000000000000000
  0.7500000000000000  0.7500000000000000  0.0000000000000000
