EA40
 1.0000000000000000
     6.6924082624567456    0.0000000000000000   -2.6548475862468424
    -3.0864501018748576    5.9381945168574601   -2.6548475862468424
     0.0000000000000000    0.0000000000000000    7.1997600000000004
 B   Mo  Si 
   4  12   2
Direct
  0.5000000000000000  0.5000000000000000  0.4999999999999999
  0.0000000000000000  0.0000000000000000  0.4999999999999999
  0.0000000000000000  0.5000000000000000 -0.0000000000000000
  0.5000000000000000  0.0000000000000000 -0.0000000000000000
  0.1988500000000000  0.6988500000000000  0.2182800000000000
  0.5194299999999999  0.0194300000000000  0.2182800000000000
  0.6392400000000001  0.8607600000000000  0.4999999999999999
  0.4805700000000001  0.9805700000000001  0.7817200000000000
  0.0194300000000000  0.8011500000000000  0.4999999999999999
  0.8607599999999999  0.3607600000000000  0.2215199999999999
  0.6988500000000000  0.4805699999999999  0.4999999999999999
  0.8011500000000001  0.3011500000000000  0.7817200000000001
  0.1392400000000000  0.6392400000000000  0.7784799999999999
  0.3011500000000000  0.5194299999999999  0.4999999999999999
  0.3607600000000001  0.1392400000000000  0.5000000000000000
  0.9805700000000001  0.1988500000000000  0.4999999999999999
  0.2500000000000000  0.2500000000000000 -0.0000000000000000
  0.7500000000000001  0.7500000000000000  0.0000000000000001
