EA85
 1.0000000000000000
     4.9310214813536115    0.0000000000000000   -2.9808069699377104
    -1.5685808469751958    4.6748825628108932   -2.9808069699377104
     0.0000000000000000    0.0000000000000000    5.7619600000000002
 B   Mo  Si 
   4   6   2
Direct
 -0.0000000000000001  0.5000000000000000 -0.0000000000000000
  0.4999999999999999  0.5000000000000000  0.4999999999999999
  0.4999999999999999 -0.0000000000000000 -0.0000000000000000
 -0.0000000000000001 -0.0000000000000000  0.4999999999999999
  0.2412899999999999  0.7412899999999999  0.9825700000000001
  0.2499999999999999  0.7500000000000000  0.4999999999999999
  0.7587099999999999  0.2587100000000000  0.0174299999999999
  0.7500000000000000  0.2500000000000000  0.4999999999999999
  0.7412899999999999  0.7587100000000000  0.4999999999999999
  0.2587099999999999  0.2412900000000000  0.4999999999999999
  0.2499999999999999  0.2500000000000000 -0.0000000000000000
  0.7500000000000000  0.7500000000000000 -0.0000000000000002
