EA166
 1.0000000000000000
     4.9223755700176408    0.0000000000000000   -2.7874417052368123
    -1.6725846182117914    4.6294969432140043   -2.7874417052368123
     0.0000000000000000    0.0000000000000000    5.6568199999999997
 B   Mo  Si 
   2   6   2
Direct
  0.0000000000000000  0.5000000000000000  0.5000000000000000
  0.5000000000000000  0.0000000000000000  0.5000000000000000
  0.7502199999999999  0.2502200000000000  0.0004400000000000
  0.7500000000000000  0.2500000000000000  0.5000000000000000
  0.2497800000000000  0.7497800000000000  0.9995600000000001
  0.2499999999999999  0.7500000000000000  0.5000000000000000
  0.2502200000000000  0.2497800000000000  0.5000000000000000
  0.7497800000000001  0.7502200000000000  0.5000000000000000
  0.2500000000000000  0.2500000000000000  0.0000000000000000
  0.7499999999999999  0.7500000000000000  0.0000000000000000
