EA203
 1.0000000000000000
     7.0668170692146921    0.0000000000000000   -2.9420661716990453
    -3.1427595185312129    6.3295312700409019   -2.9420661716990453
     0.0000000000000000    0.0000000000000000    7.6547799999999997
 B   Mo  Si 
  16  12   2
Direct
  0.6579800000000000  0.8052500000000000  0.7781000000000001
  0.5271500000000001  0.3052500000000000  0.1472700000000000
  0.3798800000000001  0.5271500000000000  0.2219000000000000
  0.6201200000000000  0.4728499999999999  0.7781000000000000
  0.4728500000000001  0.6947500000000000  0.8527300000000000
  0.3420200000000001  0.1947500000000000  0.2219000000000000
  0.6947500000000001  0.8420200000000000  0.2219000000000002
  0.8420200000000000  0.6201200000000000  0.1472700000000000
  0.1579800000000000  0.3798799999999999  0.8527299999999999
  0.8798800000000000  0.6579800000000000  0.8527300000000000
  0.9728500000000001  0.1201200000000000  0.7781000000000000
  0.0271500000000001  0.8798800000000000  0.2219000000000000
  0.1947500000000000  0.9728499999999999  0.8527300000000000
  0.8052500000000001  0.0271500000000000  0.1472700000000000
  0.3052500000000001  0.1579800000000000  0.7781000000000000
  0.1201200000000001  0.3420200000000000  0.1472700000000000
  0.1666300000000001  0.8343000000000000  0.5000000000000001
  0.6666666666666667  0.1666300000000000  0.3323300000000000
  0.8694299999999999  0.3694300000000000  0.2388700000000000
  0.8333700000000002  0.1657000000000000  0.4999999999999999
  0.6657000000000000  0.3333699999999999  0.4999999999999999
  0.3333700000000001  0.8333700000000001  0.6676700000000000
  0.3694300000000001  0.1305700000000000  0.4999999999999999
  0.8343000000000002  0.3343000000000000  0.6676700000000000
  0.6305700000000002  0.8694300000000000  0.5000000000000001
  0.1657000000000001  0.6657000000000000  0.3323300000000001
  0.1305700000000001  0.6305700000000000  0.7611300000000000
  0.3343000000000000  0.6666666666666665  0.5000000000000000
  0.5000000000000001  0.5000000000000000  0.0000000000000001
  0.0000000000000001 -0.0000000000000000 -0.0000000000000000
