%mem=16GB
%nprocshared=8
%chk=TXM-CAT_CHCl3_Step1.chk
#p opt=(verytight,maxcycle=1000) freq 
cam-b3lyp/6-31+g(d) output=wfn
nosymm int=(Acc2E=12,grid=-96032)
scf=(verytight,maxcycle=1000)
SCRF=(IEFPCM,solvent=Chloroform) 

Regular PCM geometry optimization

1 1
 S                  1.18928949    7.82656888    9.45702232
 S                  2.39492107    6.04454455    5.87736339
 N                 -3.35839192    5.36415054   12.38078569
 O                 -2.29914042    4.47190040    8.45473415
 O                  0.32334768    8.84091844    8.97192062
 O                 -0.27553294    4.95608536    6.58600217
 C                 -1.59442698    5.17668887    9.18864047
 N                  0.31939765    6.51207100    9.86704030
 N                 -1.99103500    5.45036500   10.49270300
 H                 -1.46816722    5.95231642   10.95527748
 C                  1.47722464    6.32127766    7.29913124
 C                 -4.03724031    4.20329803   10.45423310
 H                 -3.89014258    3.93635735    9.57555853
 C                  2.09783789    7.24464800    8.09297627
 O                  2.05265814    8.14003110   10.54237585
 C                  0.21565626    5.64058879    7.54843708
 C                 -4.47208202    4.97965281   13.04128403
 H                 -4.61134213    5.25206903   13.91883873
 C                  3.32032115    7.71040632    7.58498060
 H                  3.86504471    8.33369877    8.00865176
 C                 -3.10976200    5.01322300   11.11149800
 C                 -5.38159925    4.19745169   12.42359698
 H                 -6.14862856    3.92572466   12.87315105
 C                 -0.35990562    5.78886970    8.81447814
 C                 -5.16128331    3.80507262   11.11594725
 H                 -5.78487061    3.26654734   10.68527032
 C                  3.59825551    7.13502010    6.40009884
 H                  4.36984658    7.31435746    5.91424552
 C                  0.81318770    5.71227476   10.98868476
 H                  0.09335620    5.18707774   11.34751790
 H                  1.15512313    6.29449248   11.67055070
 H                  1.51236701    5.12982207   10.68374572
 H                 -1.12218095    4.59055281    6.85278504
 H                 -2.69104721    5.93490642   12.85920890

TXM-CAT_CHCl3_Step1.wfn

