EA162
 1.0000000000000000
     5.5100623145603871    0.0000000000000000   -4.5076858707946172
    -1.2375343524208096    5.3692918934359470   -4.5076858707946172
     0.0000000000000000    0.0000000000000000    7.1189900000000002
 B   Mo  Si 
   4   8   4
Direct
  0.8285200000000001  0.3285200000000000  0.4999999999999999
  0.1714800000000000  0.6714800000000000  0.4999999999999999
  0.3285200000000000  0.8285199999999999  0.4999999999999999
  0.6714800000000000  0.1714800000000000  0.4999999999999999
  0.5000000000000000 -0.0000000000000000 -0.0000000000000001
  0.2515800000000001  0.7515800000000001  0.0031600000000001
  0.7484200000000000  0.2484200000000001  0.9968399999999999
  0.0000000000000000 -0.0000000000000000  0.4999999999999999
  0.7515800000000001  0.7484200000000001  0.5000000000000000
  0.2484200000000000  0.2515800000000000  0.4999999999999999
 -0.0000000000000000  0.4999999999999999 -0.0000000000000001
  0.4999999999999999  0.4999999999999999  0.4999999999999999
  0.3631700000000000  0.3631700000000000 -0.0000000000000001
  0.6368300000000000  0.6368300000000000  0.0000000000000000
  0.1368300000000000  0.1368300000000000 -0.0000000000000001
  0.8631700000000000  0.8631700000000000 -0.0000000000000001
