EA217
 1.0000000000000000
     5.4809291025292062    0.0000000000000000   -3.2586087177733383
    -1.7737053758005386    5.1859958606624321   -3.2586087177733383
     0.0000000000000000    0.0000000000000000    6.3764500000000002
 B   Mo  Si 
   4   4   4
Direct
  0.2451800000000000  0.7451800000000000  0.9903700000000000
  0.7548200000000000  0.2548200000000000  0.0096299999999999
  0.7451799999999998  0.7548200000000000  0.4999999999999999
  0.2548199999999999  0.2451800000000000  0.4999999999999999
 -0.0000000000000000  0.5000000000000000  0.4999999999999999
  0.2499999999999999  0.2500000000000000 -0.0000000000000001
  0.7500000000000000  0.7500000000000000 -0.0000000000000001
  0.5000000000000000  0.0000000000000000  0.4999999999999999
 -0.0000000000000000  0.0000000000000000  0.5000000000000000
 -0.0000000000000000  0.5000000000000000 -0.0000000000000001
  0.5000000000000000  0.5000000000000000  0.4999999999999999
  0.5000000000000000  0.0000000000000000 -0.0000000000000001
