EA156
 1.0000000000000000
     4.9310848026256435    0.0000000000000000   -2.8157216705872083
    -1.6619473825708933    4.6425777568341644   -2.8157216705872083
     0.0000000000000000    0.0000000000000000    5.6783700000000001
 B   Mo  Si 
   2   6   2
Direct
  0.0000000000000000  0.0000000000000000  0.0000000000000001
  0.5000000000000000  0.5000000000000000  0.0000000000000002
  0.2464500000000000  0.2535500000000000  0.5000000000000001
  0.2500000000000000  0.2500000000000000  0.0000000000000001
  0.7535500000000002  0.7464499999999999  0.5000000000000002
  0.7500000000000000  0.7500000000000000  0.0000000000000002
  0.2535500000000000  0.7535500000000001  0.0071000000000002
  0.7464499999999999  0.2464500000000000  0.9929000000000001
  0.2500000000000000  0.7500000000000000  0.5000000000000002
  0.7500000000000000  0.2500000000000000  0.5000000000000001
