EA1
 1.0000000000000000
     4.8031299342687399    0.0000000000000000   -2.7321069661584581
    -1.6249033679077209    4.5199276775663764   -2.7321069661584581
     0.0000000000000000    0.0000000000000000    5.5258000000000003
 B   Mo  Si 
   2   6   2
Direct
  0.2500000000000001  0.2500000000000000  0.0000000000000000
  0.7500000000000001  0.7500000000000000  0.0000000000000000
  0.0000000000000000  0.5000000000000000  0.0000000000000000
  0.0000000000000000  0.0000000000000000  0.0000000000000000
  0.5000000000000000  0.5000000000000000  0.5000000000000000
  0.5000000000000000  0.0000000000000000  0.0000000000000000
  0.0000000000000000  0.0000000000000000  0.5000000000000000
  0.5000000000000000  0.5000000000000000  0.0000000000000000
  0.4861300000000001  0.9861299999999998  0.4722600000000000
  0.0000000000000000  0.5000000000000000  0.5000000000000000
