EA135
 1.0000000000000000
     5.5614399273804178    0.0000000000000000   -3.9291273736720345
    -1.4917407905927238    5.3576415967795850   -3.9291273736720345
     0.0000000000000000    0.0000000000000000    6.8093800000000000
 B   Mo  Si 
   4   8   4
Direct
  0.7416199999999999  0.2416200000000000  0.9832500000000000
  0.2583799999999999  0.7583800000000001  0.0167499999999999
  0.2416199999999999  0.2583800000000000  0.4999999999999999
  0.7583800000000001  0.7416199999999999  0.5000000000000000
  0.3832499999999999  0.3832499999999999 -0.0000000000000001
 -0.0000000000000001  0.5000000000000000 -0.0000000000000002
  0.6167500000000000  0.6167500000000000  0.0000000000000000
  0.4999999999999999  0.5000000000000000  0.4999999999999999
  0.4999999999999999  0.0000000000000000 -0.0000000000000001
 -0.0000000000000001  0.0000000000000000  0.5000000000000000
  0.1167499999999999  0.1167500000000000 -0.0000000000000001
  0.8832500000000000  0.8832500000000000  0.0000000000000000
  0.2572900000000000  0.2427100000000000  0.4999999999999999
  0.7427099999999999  0.7572900000000000  0.4999999999999999
  0.2427100000000000  0.7427100000000000  0.9854200000000000
  0.7572900000000000  0.2572900000000000  0.0145800000000000
