EA78
 1.0000000000000000
     5.4789411627373203    0.0000000000000000   -3.0694851301419623
    -1.8814869907332099    5.1457558209109644   -3.0694851301419623
     0.0000000000000000    0.0000000000000000    6.2801700000000000
 B   Mo  Si 
   2   8   2
Direct
  0.5000000000000000  0.5000000000000000  0.0000000000000000
 -0.0000000000000000  0.0000000000000000  0.0000000000000000
  0.2416900000000000  0.7416900000000000  0.9833699999999999
  0.5000000000000000  0.5000000000000000  0.4999999999999999
  0.7583100000000000  0.2583100000000000  0.0166300000000000
  0.7416900000000000  0.7583100000000000  0.5000000000000001
  0.5000000000000000  0.0000000000000000  0.0000000000000000
  0.2583099999999999  0.2416900000000000  0.4999999999999999
 -0.0000000000000000  0.0000000000000000  0.4999999999999999
  0.0000000000000000  0.5000000000000000  0.0000000000000000
  0.2500000000000000  0.2500000000000000  0.0000000000000000
  0.7499999999999999  0.7500000000000001  0.0000000000000001
