EA145
 1.0000000000000000
     6.4310272818410494    0.0000000000000000   -3.2663166290358512
    -2.4219831269442103    5.9575254621849014   -3.2663166290358512
     0.0000000000000000    0.0000000000000000    7.2129700000000003
 B   Mo  Si 
  16   6   2
Direct
  0.6492399999999999  0.8669800000000000  0.2530100000000001
  0.6139699999999999  0.3962400000000000  0.7469900000000002
  0.6037599999999999  0.3507600000000000  0.2177400000000000
  0.3962399999999999  0.6492400000000000  0.7822600000000002
  0.6330199999999998  0.8507599999999998  0.7469900000000000
  0.3669799999999999  0.1492400000000000  0.2530100000000001
  0.1330199999999999  0.3860300000000000  0.7822600000000002
  0.3860299999999999  0.6037600000000000  0.2530100000000000
  0.8669799999999999  0.6139700000000000  0.2177400000000000
  0.8860300000000000  0.6330200000000000  0.7822600000000002
  0.8962400000000000  0.1139700000000000  0.7469900000000002
  0.1037599999999999  0.8860300000000000  0.2530100000000001
  0.1492399999999999  0.8962400000000000  0.7822600000000002
  0.8507600000000000  0.1037600000000000  0.2177400000000000
  0.3507599999999999  0.1330200000000000  0.7469900000000002
  0.1139699999999999  0.3669799999999999  0.2177400000000000
  0.7499999999999999  0.2500000000000000  0.5000000000000001
  0.2499999999999999  0.7500000000000000  0.5000000000000001
  0.4999999999999999  0.5000000000000000  0.5000000000000000
 -0.0000000000000001  0.5000000000000000  0.0000000000000000
  0.4999999999999999  0.0000000000000000  0.0000000000000000
 -0.0000000000000001  0.0000000000000000  0.5000000000000001
  0.2499999999999999  0.2500000000000000  0.0000000000000000
  0.7499999999999999  0.7500000000000000 -0.0000000000000001
