EA151
 1.0000000000000000
     5.6387997341422507    0.0000000000000000   -3.1801535530123823
    -1.9237125880442851    5.3005086850568102   -3.1801535530123823
     0.0000000000000000    0.0000000000000000    6.4737499999999999
 B   Mo  Si 
   4   4   2
Direct
  0.2421299999999999  0.7421300000000000  0.9842599999999997
  0.7578699999999999  0.2578700000000000  0.0157399999999998
  0.7421299999999998  0.7578699999999999  0.4999999999999998
  0.2578699999999999  0.2421300000000000  0.4999999999999998
  0.4999999999999999  0.5000000000000000 -0.0000000000000003
 -0.0000000000000001  0.5000000000000000  0.4999999999999998
  0.4999999999999999  0.0000000000000000  0.4999999999999999
 -0.0000000000000001  0.0000000000000000 -0.0000000000000001
  0.2499999999999999  0.2500000000000000 -0.0000000000000002
  0.7500000000000000  0.7500000000000000 -0.0000000000000003
