EA93
 1.0000000000000000
     5.5945680881738271    0.0000000000000000   -3.0778018124608106
    -1.9554976205674499    5.2416811376855037   -3.0778018124608106
     0.0000000000000000    0.0000000000000000    6.3853000000000000
 B   Mo  Si 
   2   6   4
Direct
  0.0000000000000000  0.0000000000000000 -0.0000000000000000
  0.5000000000000000  0.5000000000000000  0.0000000000000000
  0.2500000000000000  0.2500000000000000  0.0000000000000000
  0.7445700000000000  0.2445700000000000  0.9891400000000000
  0.7500000000000001  0.7500000000000000  0.0000000000000000
  0.2554300000000000  0.7554300000000000  0.0108600000000001
  0.2445700000000000  0.2554300000000000  0.5000000000000000
  0.7554300000000000  0.7445700000000000  0.5000000000000000
  0.0000000000000000  0.5000000000000000  0.0000000000000000
  0.5000000000000000  0.5000000000000000  0.5000000000000000
  0.5000000000000000  0.0000000000000000  0.0000000000000000
  0.0000000000000000  0.0000000000000000  0.5000000000000000
