EA233
 1.0000000000000000
     4.7848025828023859    0.0000000000000000   -6.6646466844092807
    -0.4954477937972369    4.7590826048739512   -6.6646466844092807
     0.0000000000000000    0.0000000000000000    8.2043800000000005
 B   Mo  Si 
   4   8   2
Direct
  0.0968500000000001  0.0968500000000001  0.0000000000000003
  0.9031500000000005  0.9031500000000000  0.0000000000000003
  0.4031500000000002  0.4031500000000001  0.0000000000000002
  0.5968500000000002  0.5968500000000003  0.0000000000000004
  0.7419400000000004  0.2419400000000002  0.9838800000000004
  0.9026800000000000  0.4026800000000001  0.5000000000000003
  0.2580600000000001  0.7580600000000002  0.0161200000000003
  0.0973200000000000  0.5973200000000003  0.5000000000000004
  0.2419400000000002  0.2580600000000002  0.5000000000000003
  0.4026800000000001  0.9026800000000001  0.5000000000000003
  0.7580599999999998  0.7419400000000004  0.5000000000000003
  0.5973200000000002  0.0973200000000001  0.5000000000000003
  0.2500000000000001  0.2500000000000001  0.0000000000000003
  0.7500000000000001  0.7500000000000001  0.0000000000000003
