EA236
 1.0000000000000000
     5.9325580259466903    0.0000000000000000   -2.4209112992374395
    -2.6788721106826845    5.2932871588296617   -2.4209112992374395
     0.0000000000000000    0.0000000000000000    6.4074999999999998
 B   Mo  Si 
   2   6   8
Direct
 -0.0000000000000000  0.4999999999999999  0.4999999999999999
  0.5000000000000000 -0.0000000000000000  0.4999999999999999
  0.2500000000000000  0.2500000000000000 -0.0000000000000001
  0.7440000000000000  0.2440000000000000  0.9880100000000001
  0.7500000000000000  0.7500000000000000 -0.0000000000000001
  0.2560000000000000  0.7560000000000000  0.0119899999999999
  0.2440000000000000  0.2560000000000000  0.4999999999999999
  0.7560000000000000  0.7440000000000000  0.4999999999999999
  0.2770200000000000  0.5167900000000000  0.7938099999999999
  0.7229800000000000  0.4832100000000000  0.2061899999999999
  0.5167900000000000  0.7229800000000000  0.2397699999999999
  0.4832100000000000  0.2770199999999999  0.7602300000000000
  0.2229800000000000  0.0167900000000000  0.2397699999999999
  0.7770199999999998  0.9832099999999999  0.7602299999999999
  0.9832100000000000  0.2229800000000000  0.2061899999999999
  0.0167900000000000  0.7770200000000000  0.7938100000000000
