EA200
 1.0000000000000000
     5.6199083447737364    0.0000000000000000   -3.4142714850964211
    -1.7784181192840260    5.3310973351327720   -3.4142714850964211
     0.0000000000000000    0.0000000000000000    6.5757599999999998
 B   Mo  Si 
   2   6   4
Direct
  0.0000000000000000  0.5000000000000000  0.5000000000000001
  0.5000000000000000  0.0000000000000000  0.5000000000000001
  0.2500000000000000  0.2500000000000000  0.0000000000000001
  0.7461599999999999  0.2461600000000000  0.9923200000000000
  0.7499999999999999  0.7500000000000000  0.0000000000000000
  0.2538400000000000  0.7538400000000000  0.0076800000000001
  0.2461600000000000  0.2538400000000000  0.5000000000000001
  0.7538400000000000  0.7461600000000000  0.5000000000000001
  0.5000000000000000  0.5000000000000000  0.5000000000000001
  0.5000000000000000  0.0000000000000000  0.0000000000000000
  0.0000000000000000  0.0000000000000000  0.5000000000000000
  0.0000000000000000  0.5000000000000000  0.0000000000000001
