EA248
 1.0000000000000000
     2.7579400000000001   -4.7768920000000001    0.0000000000000000
     2.7579400000000001    4.7768920000000001    0.0000000000000000
     0.0000000000000000    0.0000000000000000    5.1674069999999999
 B   Mo 
  12   3
Direct
  0.6599200000000001  0.0000000000000000  0.2854660000000000
 -0.0000000000000001  0.6599200000000000  0.2854660000000000
  0.3400800000000000  0.3400800000000000  0.2854660000000000
 -0.0000000000000000  0.3400800000000000  0.2854660000000000
  0.3400800000000000  0.0000000000000000  0.2854660000000000
  0.6599200000000001  0.6599200000000001  0.2854660000000000
 -0.0000000000000000  0.3400800000000000  0.7145340000000000
  0.6599200000000001  0.6599200000000001  0.7145340000000000
  0.3400800000000000  0.0000000000000000  0.7145340000000000
  0.6599200000000001  0.0000000000000000  0.7145340000000000
  0.3400800000000000  0.3400800000000000  0.7145340000000000
 -0.0000000000000001  0.6599200000000000  0.7145340000000000
  0.6666670000000000  0.3333330000000000  0.0000000000000000
 -0.0000000000000000 -0.0000000000000000  0.5000000000000000
  0.3333329999999999  0.6666670000000000  0.0000000000000000
