EA244
 1.0000000000000000
     2.6174860000000000   -4.5336200000000000    0.0000000000000000
     2.6174860000000000    4.5336200000000000    0.0000000000000000
     0.0000000000000000    0.0000000000000000   12.2603069999999992
 B   Mo 
  24   7
Direct
  0.9993479999999989  0.3339519999999988  0.1180539999999990
  0.6648629999999998  0.6642779999999988  0.3723320000000001
  0.6660479999999996  0.6653959999999997  0.8819460000000000
  0.3346039999999999  0.0006519999999999  0.8819460000000000
  0.3357219999999989  0.0005849999999999  0.3723320000000001
  0.9994149999999988  0.3351369999999988  0.3723320000000001
  0.9993479999999989  0.3339519999999988  0.8819460000000000
  0.6660479999999999  0.0006519999999998  0.8819460000000000
  0.6648629999999999  0.0005849999999999  0.3723320000000001
  0.3346039999999999  0.3339519999999990  0.8819460000000000
  0.9994149999999988  0.6642779999999989  0.3723320000000001
  0.9993479999999989  0.6653959999999999  0.8819460000000000
  0.3357219999999989  0.3351369999999989  0.3723320000000001
  0.3346039999999999  0.3339519999999990  0.1180539999999990
  0.9994149999999988  0.3351369999999988  0.6276680000000000
  0.6660479999999996  0.6653959999999997  0.1180539999999990
  0.3357219999999989  0.3351369999999989  0.6276680000000000
  0.3346039999999999  0.0006519999999999  0.1180539999999990
  0.3357219999999989  0.0005849999999999  0.6276680000000000
  0.6648629999999998  0.6642779999999988  0.6276680000000000
  0.9994149999999988  0.6642779999999989  0.6276680000000000
  0.6660479999999999  0.0006519999999998  0.1180539999999990
  0.6648629999999999  0.0005849999999999  0.6276680000000000
  0.9993479999999989  0.6653959999999999  0.1180539999999990
 -0.0000000000000001 -0.0000000000000001  0.2468020000000000
  0.6666669999999998  0.3333329999999997  0.0000000000000000
  0.6666669999999998  0.3333329999999997  0.5000000000000000
  0.3333329999999998  0.6666669999999998  0.2444770000000000
  0.3333329999999998  0.6666669999999998  0.7555229999999999
 -0.0000000000000001 -0.0000000000000001  0.5000000000000000
 -0.0000000000000001 -0.0000000000000001  0.7531979999999990
