EA106
 1.0000000000000000
     5.3544870588456144    0.0000000000000000   -3.2328378870977796
    -1.7053911900167729    5.0756450380575604   -3.2328378870977796
     0.0000000000000000    0.0000000000000000    6.2547400000000000
 B   Mo  Si 
   2   4   4
Direct
  0.0000000000000000  0.0000000000000000  0.0000000000000000
  0.5000000000000000  0.5000000000000000  0.0000000000000000
  0.2500000000000000  0.2500000000000000  0.0000000000000000
  0.2500000000000000  0.7500000000000000  0.5000000000000000
  0.7500000000000000  0.7500000000000000  0.0000000000000000
  0.7500000000000000  0.2500000000000000  0.5000000000000000
  0.0117100000000000  0.5117100000000000  0.0221000000000000
  0.5000000000000000  0.5000000000000000  0.5000000000000000
  0.4896000000000000  0.9896000000000000  0.9779000000000000
  0.0000000000000000  0.0000000000000000  0.5000000000000000
