EA60
 1.0000000000000000
     4.9400085587601632    0.0000000000000000   -2.6196857309563550
    -1.7879794111657288    4.6050856871366816   -2.6196857309563550
     0.0000000000000000    0.0000000000000000    5.5916399999999999
 B   Mo  Si 
   4   6   2
Direct
  0.2451200000000000  0.7451200000000000  0.9902400000000000
  0.7548800000000000  0.2548800000000000  0.0097599999999999
  0.7451200000000000  0.7548799999999999  0.4999999999999998
  0.2548800000000000  0.2451200000000000  0.4999999999999999
  0.0000000000000000 -0.0000000000000000  0.4999999999999999
  0.0000000000000000 -0.0000000000000000 -0.0000000000000001
  0.0000000000000000  0.5000000000000000 -0.0000000000000000
  0.5000000000000000  0.5000000000000000  0.4999999999999999
  0.5000000000000000 -0.0000000000000000 -0.0000000000000000
  0.5000000000000000  0.5000000000000000  0.0000000000000000
  0.5000000000000000 -0.0000000000000000  0.4999999999999999
  0.0000000000000000  0.5000000000000000  0.4999999999999999
