EA27
 1.0000000000000000
     4.9335888796406877    0.0000000000000000   -3.0062775792640557
    -1.5564687886902251    4.6816347725070822   -3.0062775792640557
     0.0000000000000000    0.0000000000000000    5.7773700000000003
 B   Mo  Si 
   4   6   2
Direct
 -0.0000000000000000  0.5000000000000000  0.0000000000000001
  0.4999999999999999  0.5000000000000000  0.5000000000000002
  0.4999999999999999 -0.0000000000000000  0.0000000000000001
 -0.0000000000000001 -0.0000000000000000  0.5000000000000002
  0.2499999999999999  0.7500000000000000  0.5000000000000002
  0.2439399999999999  0.7439400000000000  0.9878800000000002
  0.7500000000000000  0.2500000000000000  0.5000000000000002
  0.7560600000000000  0.2560600000000000  0.0121200000000002
  0.7439400000000000  0.7560599999999998  0.5000000000000001
  0.2560600000000000  0.2439400000000000  0.5000000000000001
  0.2499999999999999  0.2500000000000000  0.0000000000000001
  0.7500000000000000  0.7500000000000000  0.0000000000000002
