EA23
 1.0000000000000000
     5.6376938192183372    0.0000000000000000   -3.1083238635553019
    -1.9663511394075694    5.2836592240419140   -3.1083238635553019
     0.0000000000000000    0.0000000000000000    6.4378000000000002
 B   Mo  Si 
   2   6   2
Direct
  0.7499999999999999  0.2500000000000000  0.5000000000000000
  0.2500000000000000  0.7500000000000000  0.5000000000000000
  0.5000000000000000  0.5000000000000000  0.5000000000000000
  0.5000000000000000  0.0000000000000000  0.5000000000000000
  0.5000000000000000  0.0000000000000000  0.0000000000000000
  0.0000000000000000  0.5000000000000000  0.5000000000000000
  0.0000000000000000  0.0000000000000000  0.5000000000000000
  0.0000000000000000  0.5000000000000000  0.0000000000000000
  0.2500000000000000  0.2500000000000000  0.0000000000000000
  0.7499999999999999  0.7500000000000000  0.0000000000000000
