EA65
 1.0000000000000000
     4.9322511966952636    0.0000000000000000   -2.5488869840771948
    -1.8283715141110795    4.5808470257899927   -2.5488869840771948
     0.0000000000000000    0.0000000000000000    5.5519299999999996
 B   Mo  Si 
   4   6   2
Direct
  0.2463499999999999  0.2536500000000000  0.5000000000000000
  0.7536500000000000  0.7463500000000000  0.5000000000000001
  0.2536500000000000  0.7536500000000000  0.0073100000000000
  0.7463500000000000  0.2463500000000000  0.9926900000000000
  0.2266100000000000  0.7266100000000000  0.9532300000000000
  0.2499999999999999  0.2500000000000000 -0.0000000000000000
  0.7733900000000000  0.2733900000000000  0.0467700000000000
  0.7499999999999999  0.7500000000000000 -0.0000000000000001
  0.7266099999999999  0.7733900000000000  0.5000000000000000
  0.2733900000000000  0.2266100000000000  0.5000000000000000
  0.5000000000000000  0.0000000000000000  0.5000000000000000
 -0.0000000000000000  0.5000000000000000  0.4999999999999999
