EA22
 1.0000000000000000
     5.1754671708863444    0.0000000000000000   -2.6630268739120342
    -1.9262292564124199    4.8036549926762184   -2.6630268739120342
     0.0000000000000000    0.0000000000000000    5.8204099999999999
 B   Mo  Si 
   4   6   4
Direct
  0.0000000000000000  0.0000000000000000  0.5000000000000000
  0.0000000000000000  0.5000000000000000  0.0000000000000000
  0.5000000000000000  0.5000000000000000  0.5000000000000000
  0.5000000000000000  0.0000000000000000  0.0000000000000000
  0.6834700000000000  0.1834700000000000  0.8669400000000000
  0.2500000000000000  0.2500000000000000  0.0000000000000000
  0.3165300000000000  0.8165300000000000  0.1330600000000000
  0.7500000000000000  0.7500000000000000  0.0000000000000000
  0.1834700000000000  0.3165300000000000  0.5000000000000000
  0.8165300000000000  0.6834700000000000  0.4999999999999999
  0.1887000000000000  0.6887000000000000  0.8774000000000000
  0.8113000000000001  0.3113000000000000  0.1226000000000000
  0.6887000000000001  0.8113000000000000  0.5000000000000000
  0.3113000000000001  0.1887000000000000  0.5000000000000001
