EA161
 1.0000000000000000
     6.1049149463368675    0.0000000000000000   -2.6810141228446982
    -2.6033267745495303    5.5220174037140461   -2.6810141228446982
     0.0000000000000000    0.0000000000000000    6.6676700000000002
 B   Mo  Si 
   4  12   2
Direct
  0.1730299999999999  0.6730299999999999  0.8460499999999999
  0.3269700000000000  0.1730300000000000  0.4999999999999999
  0.6730300000000000  0.8269699999999999  0.5000000000000000
  0.8269700000000000  0.3269699999999999  0.1539500000000001
  0.3555499999999999  0.8555500000000000  0.6969900000000000
  0.8414400000000000  0.3414400000000000  0.6969900000000000
  0.0000000000000000  0.5000000000000000 -0.0000000000000000
  0.6585600000000000  0.3555499999999999  0.5000000000000000
  0.8555500000000001  0.1585600000000000  0.5000000000000001
 -0.0000000000000000 -0.0000000000000000  0.5000000000000000
  0.1444500000000000  0.8414400000000000  0.4999999999999999
  0.5000000000000000  0.5000000000000000  0.5000000000000000
  0.1585600000000000  0.6585600000000000  0.3030099999999999
  0.6444500000000000  0.1444500000000000  0.3030100000000001
  0.5000000000000000 -0.0000000000000000  0.0000000000000000
  0.3414400000000000  0.6444500000000000  0.4999999999999999
  0.0000000000000000  0.5000000000000000  0.4999999999999999
  0.5000000000000000 -0.0000000000000000  0.5000000000000000
