EA84
 1.0000000000000000
     5.5478218923271418    0.0000000000000000   -3.1199164824423882
    -1.8979639291249981    5.2130663407177842   -3.1199164824423882
     0.0000000000000000    0.0000000000000000    6.3649199999999997
 B   Mo  Si 
   2   6   4
Direct
  0.2500000000000000  0.2500000000000000  0.0000000000000002
  0.7500000000000000  0.7500000000000000  0.0000000000000001
  0.5000000000000000  0.5000000000000000  0.0000000000000002
  0.0000000000000000  0.5000000000000000  0.0000000000000002
  0.5000000000000000  0.5000000000000000  0.5000000000000002
  0.5000000000000000  0.0000000000000000  0.0000000000000002
  0.0000000000000000  0.0000000000000000  0.5000000000000001
  0.0000000000000000  0.0000000000000000  0.0000000000000001
  0.7517600000000000  0.2517600000000000  0.0035200000000002
  0.2482400000000000  0.7482400000000001  0.9964800000000003
  0.2517600000000000  0.2482400000000000  0.5000000000000001
  0.7482400000000000  0.7517600000000000  0.5000000000000001
