EA19
 1.0000000000000000
     4.8027648537132848    0.0000000000000000   -2.6480978427611785
    -1.6751000514373648    4.5011765192822786   -2.6480978427611785
     0.0000000000000000    0.0000000000000000    5.4844299999999997
 B   Mo  Si 
   2   4   4
Direct
 -0.0000000000000000  0.0000000000000000  0.0000000000000000
  0.4999999999999999  0.5000000000000000  0.0000000000000000
  0.2499999999999999  0.2500000000000000  0.0000000000000000
  0.2499999999999999  0.7500000000000000  0.5000000000000000
  0.7500000000000000  0.7500000000000000  0.0000000000000000
  0.7500000000000000  0.2500000000000000  0.5000000000000000
  0.2504100000000000  0.7504100000000001  0.0008100000000001
  0.7495900000000000  0.2495900000000000  0.9991900000000002
  0.7504100000000000  0.7495900000000000  0.4999999999999999
  0.2495900000000000  0.2504100000000001  0.5000000000000000
