EA104
 1.0000000000000000
     5.6441572782205718    0.0000000000000000   -3.6663390453025131
    -1.6634687210767582    5.3934574435411564   -3.6663390453025131
     0.0000000000000000    0.0000000000000000    6.7304199999999996
 B   Mo  Si 
   8   6   2
Direct
  0.5019100000000001  0.0019100000000000  0.2484700000000002
  0.4980900000000000  0.9980900000000000  0.7515300000000003
  0.0019100000000000  0.7534399999999999  0.5000000000000001
  0.9980900000000001  0.2465600000000000  0.5000000000000001
  0.7534400000000001  0.2534400000000000  0.7515300000000001
  0.2465600000000000  0.7465600000000000  0.2484700000000002
  0.2534400000000000  0.5019100000000000  0.5000000000000001
  0.7465600000000000  0.4980900000000000  0.5000000000000002
  0.2500000000000000  0.2500000000000000  0.0000000000000001
  0.1729100000000000  0.6729100000000000  0.8458300000000002
  0.7500000000000000  0.7500000000000000  0.0000000000000000
  0.8270900000000001  0.3270900000000000  0.1541700000000003
  0.6729100000000000  0.8270900000000000  0.5000000000000001
  0.3270900000000000  0.1729100000000000  0.5000000000000001
  0.0000000000000000  0.0000000000000000  0.0000000000000001
  0.5000000000000000  0.5000000000000000  0.0000000000000002
