EA92
 1.0000000000000000
     5.2270885880910010    0.0000000000000000   -5.8737695504887508
    -0.7569725285977057    5.1719868231366917   -5.8737695504887508
     0.0000000000000000    0.0000000000000000    7.8628000000000000
 B   Mo  Si 
   2   6   8
Direct
  0.0000000000000001  0.4999999999999997  0.4999999999999998
  0.5000000000000001 -0.0000000000000003  0.4999999999999998
  0.2459900000000001  0.7459899999999996  0.9919799999999998
  0.2500000000000001  0.2499999999999998 -0.0000000000000002
  0.7540099999999998  0.2540099999999998  0.0080199999999997
  0.7500000000000001  0.7499999999999998 -0.0000000000000001
  0.7459900000000003  0.7540099999999996  0.4999999999999999
  0.2540100000000001  0.2459899999999997  0.4999999999999998
  0.1133700000000000  0.1121499999999997  0.4999999999999997
  0.8866300000000000  0.8878499999999995  0.4999999999999995
  0.1121500000000001  0.6121499999999996  0.9987799999999998
  0.8878499999999998  0.3878499999999998  0.0012199999999998
  0.6121499999999999  0.6133699999999996  0.4999999999999998
  0.3878499999999999  0.3866299999999998  0.4999999999999998
  0.6133700000000001  0.1133699999999998  0.0012199999999999
  0.3866299999999999  0.8866299999999996  0.9987799999999997
