EA117
 1.0000000000000000
     5.6348874300674465    0.0000000000000000   -2.9844008005909473
    -2.0418357239219476    5.2519389967942551   -2.9844008005909473
     0.0000000000000000    0.0000000000000000    6.3764099999999999
 B   Mo  Si 
   2   6   2
Direct
  0.2500000000000000  0.2500000000000000 -0.0000000000000000
  0.7500000000000000  0.7500000000000000  0.0000000000000000
  0.5000000000000000  0.5000000000000000  0.0000000000000000
  0.5000000000000000  0.0000000000000000 -0.0000000000000000
  0.0000000000000000  0.0000000000000000  0.4999999999999999
  0.0000000000000000  0.5000000000000000  0.0000000000000000
  0.5000000000000000  0.5000000000000000  0.4999999999999999
  0.0000000000000000  0.0000000000000000 -0.0000000000000000
  0.7500000000000000  0.2500000000000000  0.4999999999999999
  0.2500000000000001  0.7500000000000000  0.4999999999999999
