EA66
 1.0000000000000000
     5.4709585233278482    0.0000000000000000   -2.9912920851074314
    -1.9235225268448695    5.1216645978328135   -2.9912920851074314
     0.0000000000000000    0.0000000000000000    6.2353199999999998
 B   Mo  Si 
   4   4   2
Direct
  0.0000000000000000  0.0000000000000000  0.5000000000000000
  0.0000000000000000  0.5000000000000000 -0.0000000000000000
  0.5000000000000000  0.5000000000000000  0.5000000000000000
  0.5000000000000000  0.0000000000000000  0.0000000000000000
  0.2500000000000000  0.7500000000000000  0.4999999999999999
  0.2500000000000000  0.2500000000000000  0.0000000000000000
  0.7500000000000000  0.2500000000000000  0.5000000000000000
  0.7500000000000000  0.7500000000000000  0.0000000000000000
  0.5000000000000000  0.0000000000000000  0.5000000000000000
  0.0000000000000000  0.5000000000000000  0.5000000000000000
