EA94
 1.0000000000000000
     4.9463940734813088    0.0000000000000000   -2.6813149949099571
    -1.7535756186768816    4.6251256069163142   -2.6813149949099571
     0.0000000000000000    0.0000000000000000    5.6263899999999998
 B   Mo  Si 
   4   4   4
Direct
  0.5000000000000000  0.0000000000000000  0.0000000000000000
  0.0000000000000000  0.0000000000000000  0.5000000000000000
  0.0000000000000000  0.5000000000000000 -0.0000000000000000
  0.5000000000000000  0.5000000000000000  0.5000000000000000
  0.2500000000000000  0.2500000000000000  0.0000000000000000
  0.2500000000000000  0.7500000000000000  0.5000000000000000
  0.7500000000000000  0.7500000000000000  0.0000000000000000
  0.7500000000000000  0.2500000000000000  0.5000000000000000
  0.7419100000000000  0.2419100000000000  0.9838200000000001
  0.2580900000000000  0.7580900000000000  0.0161799999999999
  0.2419100000000000  0.2580900000000000  0.5000000000000000
  0.7580900000000000  0.7419100000000000  0.5000000000000000
