EA147
 1.0000000000000000
     6.1498160763599765    0.0000000000000000   -1.8491288400066637
    -3.3999626799247071    5.1244991509585418   -1.8491288400066637
     0.0000000000000000    0.0000000000000000    6.4218000000000002
 B   Mo  Si 
   2   6   8
Direct
  0.0000000000000001  0.5000000000000000  0.5000000000000000
  0.5000000000000002  0.0000000000000000  0.5000000000000001
  0.2354000000000001  0.2646000000000000  0.5000000000000000
  0.2500000000000001  0.2500000000000000 -0.0000000000000000
  0.7646000000000002  0.7354000000000001  0.4999999999999999
  0.7500000000000002  0.7500000000000000  0.0000000000000000
  0.2646000000000001  0.7645999999999999  0.0292000000000000
  0.7354000000000003  0.2354000000000000  0.9708000000000001
  0.2500000000000000  0.9491899999999999  0.6991899999999999
  0.7500000000000001  0.0508100000000000  0.3008100000000000
  0.9491899999999999  0.2500000000000000  0.6991899999999999
  0.0508100000000001  0.7500000000000000  0.3008100000000000
  0.2500000000000001  0.5508100000000000  0.3008100000000000
  0.7500000000000002  0.4491899999999999  0.6991900000000000
  0.5508100000000001  0.2500000000000000  0.3008100000000000
  0.4491900000000001  0.7500000000000000  0.6991900000000000
