generated by phonopy                    
   1.00000000000000     
     2.4493799369052622    1.4141501656966033    4.1824521315493373
    -2.4493799369057996    1.4141501655602517    4.1824521315658876
    -0.0000000000841064   -2.8283003316333630    4.1824521316689296
   B 
    12
Direct
  0.0102865701430594  0.6540794903224325  0.0102865701507082
  0.0102865701387018  0.0102865701538743  0.6540794903246779
  0.6540794903251499  0.0102865701451250  0.0102865701385631
  0.3459205096751654  0.9897134298541921  0.9897134298608616
  0.9897134298570814  0.3459205096775710  0.9897134298497575
  0.9897134298612095  0.9897134298464050  0.3459205096751106
  0.2211043102983461  0.6304950277832342  0.2211043103541065
  0.2211043103594356  0.2211043103778541  0.6304950277440483
  0.6304950278117879  0.2211043102875018  0.2211043103265661
  0.3695049721880348  0.7788956897126397  0.7788956896735455
  0.7788956897012892  0.3695049722170649  0.7788956896461240
  0.7788956896407319  0.7788956896221065  0.3695049722559227
 
  0.00000000E+00  0.00000000E+00  0.00000000E+00
  0.00000000E+00  0.00000000E+00  0.00000000E+00
  0.00000000E+00  0.00000000E+00  0.00000000E+00
  0.00000000E+00  0.00000000E+00  0.00000000E+00
  0.00000000E+00  0.00000000E+00  0.00000000E+00
  0.00000000E+00  0.00000000E+00  0.00000000E+00
  0.00000000E+00  0.00000000E+00  0.00000000E+00
  0.00000000E+00  0.00000000E+00  0.00000000E+00
  0.00000000E+00  0.00000000E+00  0.00000000E+00
  0.00000000E+00  0.00000000E+00  0.00000000E+00
  0.00000000E+00  0.00000000E+00  0.00000000E+00
  0.00000000E+00  0.00000000E+00  0.00000000E+00
