EA150
 1.0000000000000000
     4.9799822234870756    0.0000000000000000   -2.8241970641852747
    -1.6898022172497060    4.6845268077816842   -2.8241970641852747
     0.0000000000000000    0.0000000000000000    5.7250600000000000
 B   Mo  Si 
   4   6   2
Direct
  0.0000000000000000  0.5000000000000000 -0.0000000000000000
  0.5000000000000000  0.5000000000000000  0.5000000000000000
  0.5000000000000000 -0.0000000000000000  0.0000000000000000
  0.0000000000000000 -0.0000000000000000  0.5000000000000000
  0.2500000000000000  0.7500000000000000  0.5000000000000000
  0.2380100000000001  0.7380100000000001  0.9760100000000002
  0.7500000000000000  0.2500000000000000  0.5000000000000000
  0.7619900000000001  0.2619900000000000  0.0239900000000000
  0.7380100000000001  0.7619899999999998  0.5000000000000000
  0.2619900000000001  0.2380100000000000  0.5000000000000000
  0.2500000000000000  0.2500000000000000  0.0000000000000000
  0.7500000000000000  0.7500000000000000  0.0000000000000000
