EA246
 1.0000000000000000
     2.9428402000000000   -0.0030354400000000    6.5421423200000000
     1.4012490700000000    2.5878199999999998    6.5421423200000000
    -0.0050999900000000   -0.0030354400000000    7.1735564900000002
 B   Mo 
   4   2
Direct
  0.8183309700000000  0.8183309699999999  0.8183309700000001
  0.1816690300000000  0.1816690300000000  0.1816690300000000
  0.3321028499999998  0.3321028500000000  0.3321028500000002
  0.6678971500000001  0.6678971500000001  0.6678971499999999
  0.9243471400000000  0.9243471400000002  0.9243471400000004
  0.0756528599999999  0.0756528600000000  0.0756528600000000
