EA58
 1.0000000000000000
     5.8316358667850769    0.0000000000000000   -2.8507073068496287
    -2.2724613624427148    5.3706513793932977   -2.8507073068496287
     0.0000000000000000    0.0000000000000000    6.4911099999999999
 B   Mo  Si 
   4   6   4
Direct
  0.7191400000000001  0.2191400000000000  0.9382799999999999
  0.2808600000000001  0.7808600000000000  0.0617199999999999
  0.2191400000000001  0.2808600000000000  0.4999999999999999
  0.7808600000000001  0.7191399999999999  0.4999999999999998
  0.5000000000000000 -0.0000000000000000  0.4999999999999999
  0.5000000000000001  0.5000000000000000  0.4999999999999999
  0.0000000000000001  0.5000000000000000  0.4999999999999999
  0.5000000000000000 -0.0000000000000000 -0.0000000000000001
  0.0000000000000000 -0.0000000000000000  0.4999999999999999
  0.0000000000000001  0.5000000000000000 -0.0000000000000001
  0.2360700000000001  0.7360700000000000  0.9721299999999999
  0.7639300000000000  0.2639300000000000  0.0278699999999998
  0.7360700000000000  0.7639300000000000  0.4999999999999999
  0.2639300000000001  0.2360700000000000  0.4999999999999999
