EA176
 1.0000000000000000
     6.3359436826773683    0.0000000000000000   -3.5963921477420593
    -2.1478580929514468    5.9607791405656210   -3.5963921477420593
     0.0000000000000000    0.0000000000000000    7.2854799999999997
 B   Mo  Si 
   2  12   4
Direct
  0.2500000000000000  0.2500000000000000 -0.0000000000000001
  0.7500000000000000  0.7500000000000001  0.0000000000000000
  0.7387700000000000  0.2387700000000000  0.2518400000000000
 -0.0000000000000000  0.0000000000000000  0.5000000000000000
  0.9869299999999999  0.4869300000000000  0.7481599999999999
  0.5130700000000000  0.2612300000000000  0.5000000000000000
  0.0000000000000000  0.5000000000000000 -0.0000000000000000
  0.4869300000000000  0.7387700000000000  0.4999999999999999
  0.2612300000000000  0.7612300000000000  0.7481600000000000
  0.2387700000000000  0.9869300000000000  0.4999999999999999
  0.5000000000000000  0.0000000000000000 -0.0000000000000000
  0.7612300000000001  0.0130700000000000  0.5000000000000001
  0.0130700000000000  0.5130700000000000  0.2518400000000000
  0.5000000000000000  0.5000000000000000  0.4999999999999999
  0.7037099999999998  0.2037100000000000  0.9074199999999999
  0.2962900000000000  0.7962900000000001  0.0925800000000000
  0.7962900000000001  0.7037099999999999  0.5000000000000000
  0.2037100000000000  0.2962900000000000  0.4999999999999999
