EA71
 1.0000000000000000
     6.1474056059465569    0.0000000000000000   -2.2566899381343588
    -2.9964580142734065    5.3676656986738500   -2.2566899381343588
     0.0000000000000000    0.0000000000000000    6.5485300000000004
 B   Mo  Si 
   2   4   8
Direct
  0.5000000000000001  0.0000000000000000  0.5000000000000001
  0.0000000000000001  0.5000000000000000  0.5000000000000001
  0.2500000000000001  0.2500000000000000  0.0000000000000000
  0.2500000000000001  0.7500000000000000  0.5000000000000001
  0.7500000000000001  0.7500000000000000  0.0000000000000001
  0.7500000000000002  0.2500000000000000  0.5000000000000001
  0.2087800000000001  0.0544300000000000  0.2632100000000001
  0.7912200000000000  0.9455700000000000  0.7367899999999999
  0.0544300000000001  0.7912200000000000  0.8456600000000000
  0.9455700000000001  0.2087800000000000  0.1543400000000001
  0.2912200000000000  0.5544300000000000  0.8456600000000000
  0.7087800000000000  0.4455700000000000  0.1543400000000000
  0.4455700000000001  0.2912200000000000  0.7367899999999999
  0.5544300000000001  0.7087800000000000  0.2632100000000001
