EA80
 1.0000000000000000
     5.3310205027258730    0.0000000000000000   -2.8334798326468436
    -1.9254211227059335    4.9711701943024886   -2.8334798326468436
     0.0000000000000000    0.0000000000000000    6.0372500000000002
 B   Mo  Si 
   2   6   2
Direct
 -0.0000000000000000  0.0000000000000000  0.0000000000000000
  0.5000000000000000  0.5000000000000000  0.0000000000000000
  0.2499999999999999  0.2500000000000000 -0.0000000000000000
 -0.0000000000000000  0.5000000000000000 -0.0000000000000000
  0.7499999999999999  0.7500000000000000  0.0000000000000001
  0.5000000000000000  0.5000000000000000  0.5000000000000000
  0.5000000000000000  0.0000000000000000  0.0000000000000000
 -0.0000000000000000  0.0000000000000000  0.5000000000000000
  0.2499999999999999  0.7500000000000000  0.5000000000000000
  0.7499999999999999  0.2500000000000000  0.5000000000000000
