EA14
 1.0000000000000000
     5.4517799250360817    0.0000000000000000   -2.8017140186988332
    -2.0314432096941935    5.0591642429173795   -2.8017140186988332
     0.0000000000000000    0.0000000000000000    6.1295599999999997
 B   Mo  Si 
   4   4   2
Direct
  0.2421100000000000  0.7421100000000002  0.9842200000000001
  0.7578900000000000  0.2578900000000000  0.0157800000000001
  0.7421100000000000  0.7578900000000000  0.5000000000000000
  0.2578900000000000  0.2421100000000000  0.5000000000000001
  0.5000000000000000  0.0000000000000000  0.5000000000000000
  0.2500000000000000  0.7500000000000000  0.5000000000000001
  0.7500000000000000  0.2500000000000000  0.5000000000000001
  0.0000000000000000  0.5000000000000000  0.5000000000000000
  0.2500000000000000  0.2500000000000000  0.0000000000000000
  0.7500000000000000  0.7500000000000000  0.0000000000000000
