EA143
 1.0000000000000000
     5.6859081007022736    0.0000000000000000   -4.0191466197152179
    -1.5241326545476914    5.4778253514486153   -4.0191466197152179
     0.0000000000000000    0.0000000000000000    6.9629799999999999
 B   Mo  Si 
   8   4   4
Direct
  0.5893000000000000  0.0893000000000000  0.0278100000000001
  0.4107000000000000  0.9107000000000000  0.9721900000000002
  0.0892999999999999  0.0615000000000000  0.5000000000000001
  0.9106999999999998  0.9385000000000000  0.5000000000000000
  0.0615000000000000  0.5615000000000000  0.9721899999999999
  0.9385000000000000  0.4384999999999999  0.0278099999999999
  0.5615000000000000  0.5893000000000000  0.5000000000000002
  0.4384999999999998  0.4107000000000000  0.5000000000000000
 -0.0000000000000000  0.0000000000000000  0.0000000000000001
  0.2499999999999999  0.2500000000000000  0.0000000000000001
  0.7499999999999999  0.7500000000000000  0.0000000000000001
  0.4999999999999999  0.5000000000000000  0.0000000000000000
  0.1709999999999999  0.6710000000000000  0.8420100000000001
  0.8289999999999998  0.3290000000000000  0.1579900000000001
  0.6709999999999999  0.8289999999999998  0.5000000000000000
  0.3289999999999999  0.1710000000000000  0.5000000000000000
